 vasp.6.4.2 20Jul23 (build Nov 14 2023 13:24:25) complex

 executed on             LinuxIFC date 2023.12.17  08:45:27

 INCAR:
   ENCUT = 193.577625
   ALGO = Normal
   NELM = 200
   NELMIN = 6
   NELMDL = -12
   EDIFF = 1.0E-6
   AMIX = 0.1
   BMIX = 0.0001
   NBANDS = 32
   PREC = Accurate
   IVDW = 0
   ISPIN = 1
   ADDGRID = .TRUE.
   LASPH = .TRUE.
   LSORBIT = .TRUE.
   NSW = 0
   EDIFFG = -0.010
   IBRION = 2
   ISIF = -1
   POTIM = 0.5
   STRESSTYPE = 2
   ISMEAR = 0
   SIGMA = 0.01
   LORBIT = 10
   NEDOS = 6001
   NWRITE = 1
   LWAVE = .FALSE.
   LCHARG = .FALSE.
   ICHARG = 11
   NCORE = 4
   LPLANE = .TRUE.

 POTCAR:    PAW_PBE Sb_GW 21Mar2012
|           W    W    AA    RRRRR   N    N  II  N    N   GGGG   !!!           |
|           W    W   A  A   R    R  NN   N  II  NN   N  G    G  !!!           |
|           W    W  A    A  R    R  N N  N  II  N N  N  G       !!!           |
|           W WW W  AAAAAA  RRRRR   N  N N  II  N  N N  G  GGG   !            |
|           WW  WW  A    A  R   R   N   NN  II  N   NN  G    G                |
|           W    W  A    A  R    R  N    N  II  N    N   GGGG   !!!           |
|     You use a magnetic or noncollinear calculation, but did not specify     |
|     the initial magnetic moment with the MAGMOM tag. Note that a            |
|     default of 1 will be used for all atoms. This ferromagnetic setup       |
|     may break the symmetry of the crystal, in particular it may rule        |
|     out finding an antiferromagnetic solution. Thence, we recommend         |
|     setting the initial magnetic moment manually or verifying carefully     |
|     that this magnetic setup is desired.                                    |

 POTCAR:    PAW_PBE Sb_GW 21Mar2012

  PAW_PBE Sb_GW 21Mar2012               :

 POSCAR: pnictogen honeycomb monolayer
  positions in direct lattice
  velocities in cartesian coordinates
 exchange correlation table for  LEXCH =        8
   RHO(1)=    0.500       N(1)  =     2000
   RHO(2)=  100.500       N(2)  =     4000

 ion  position               nearest neighbor table
   1  0.667  0.333  0.449-   2 2.89   2 2.89   2 2.89
   2  0.333  0.667  0.551-   1 2.89   1 2.89   1 2.89

  LATTYP: Found a hexagonal cell.
 ALAT       =     4.1133665497
 C/A-ratio  =     3.8897578922

  Lattice vectors:

 A1 = (   4.1133665497,   0.0000000000,   0.0000000000)
 A2 = (  -2.0566832748,   3.5622799271,   0.0000000000)
 A3 = (   0.0000000000,   0.0000000000,  16.0000000000)

Analysis of symmetry for initial positions (statically):
 Subroutine PRICEL returns:
 Original cell was already a primitive cell.

 Routine SETGRP: Setting up the symmetry group for a
 hexagonal supercell.

 Subroutine GETGRP returns: Found 12 space group operations
 (whereof 12 operations were pure point group operations)
 out of a pool of 24 trial point group operations.

The static configuration has the point symmetry D_3d.

Analysis of symmetry for dynamics (positions and initial velocities):
 Subroutine PRICEL returns:
 Original cell was already a primitive cell.

[...]

The dynamic configuration has the point symmetry D_3d.

Analysis of structural, dynamic, and magnetic symmetry:
 Subroutine PRICEL returns:
 Original cell was already a primitive cell.

 Routine SETGRP: Setting up the symmetry group for a
 hexagonal supercell.

 Subroutine GETGRP returns: Found  2 space group operations
 (whereof  2 operations were pure point group operations)
 out of a pool of 24 trial point group operations.

The overall configuration has the point symmetry S_2 .

 Subroutine INISYM returns: Found  2 space group operations
 (whereof  2 operations are pure point group operations),
 and found     1 'primitive' translations

                                     Primitive cell

  volume of cell :     234.4474

  direct lattice vectors                    reciprocal lattice vectors
     4.113366550  0.000000000  0.000000000     0.243109868  0.140359548  0.000000000
    -2.056683275  3.562279927  0.000000000     0.000000000  0.280719096  0.000000000
     0.000000000  0.000000000 16.000000000     0.000000000  0.000000000  0.062500000

  length of vectors
     4.113366550  4.113366550 16.000000000     0.280719096  0.280719096  0.062500000

  position of ions in fractional coordinates (direct lattice)
     0.666666667  0.333333333  0.448625398
     0.333333333  0.666666667  0.551374602

  ion indices of the primitive-cell ions
   primitive index   ion index
                 1           1
                 2           2

 KPOINTS: kpoints along symmetry lines

Interpolating k-points between supplied coordinates.

 Line segments in fractional coordinates (reciprocal lattice):
    0.000000  0.000000  0.000000  ...  0.666667 -0.333333  0.000000
    0.666667 -0.333333  0.000000  ...  0.333333  0.333333  0.000000
    0.333333  0.333333  0.000000  ...  0.000000  0.000000  0.000000

 Generated    50 points on each line segment, for a total of    150 k-points:

 Following reciprocal coordinates:
            Coordinates               Weight
  0.000000  0.000000  0.000000      0.006667
  0.013605 -0.006803  0.000000      0.006667
  0.027211 -0.013605  0.000000      0.006667
  0.040816 -0.020408  0.000000      0.006667
  0.054422 -0.027211  0.000000      0.006667
  0.068027 -0.034014  0.000000      0.006667
  0.081633 -0.040816  0.000000      0.006667
  0.095238 -0.047619  0.000000      0.006667
  0.108844 -0.054422  0.000000      0.006667
  0.122449 -0.061224  0.000000      0.006667
  0.136054 -0.068027  0.000000      0.006667
  0.149660 -0.074830  0.000000      0.006667
  0.163265 -0.081633  0.000000      0.006667
  0.176871 -0.088435  0.000000      0.006667
  0.190476 -0.095238  0.000000      0.006667
  0.204082 -0.102041  0.000000      0.006667
  0.217687 -0.108844  0.000000      0.006667
  0.231293 -0.115646  0.000000      0.006667
  0.244898 -0.122449  0.000000      0.006667
  0.258503 -0.129252  0.000000      0.006667
  0.272109 -0.136054  0.000000      0.006667
  0.285714 -0.142857  0.000000      0.006667
  0.299320 -0.149660  0.000000      0.006667
  0.312925 -0.156463  0.000000      0.006667
  0.326531 -0.163265  0.000000      0.006667
  0.340136 -0.170068  0.000000      0.006667
  0.353741 -0.176871  0.000000      0.006667
  0.367347 -0.183673  0.000000      0.006667
  0.380952 -0.190476  0.000000      0.006667
  0.394558 -0.197279  0.000000      0.006667
  0.408163 -0.204082  0.000000      0.006667
  0.421769 -0.210884  0.000000      0.006667
  0.435374 -0.217687  0.000000      0.006667
  0.448980 -0.224490  0.000000      0.006667
  0.462585 -0.231293  0.000000      0.006667
  0.476190 -0.238095  0.000000      0.006667
  0.489796 -0.244898  0.000000      0.006667
  0.503401 -0.251701  0.000000      0.006667
  0.517007 -0.258503  0.000000      0.006667
  0.530612 -0.265306  0.000000      0.006667
  0.544218 -0.272109  0.000000      0.006667
  0.557823 -0.278912  0.000000      0.006667
  0.571429 -0.285714  0.000000      0.006667
  0.585034 -0.292517  0.000000      0.006667
  0.598639 -0.299320  0.000000      0.006667
  0.612245 -0.306122  0.000000      0.006667
  0.625850 -0.312925  0.000000      0.006667
  0.639456 -0.319728  0.000000      0.006667
  0.653061 -0.326531  0.000000      0.006667
  0.666667 -0.333333  0.000000      0.006667
  0.666667 -0.333333  0.000000      0.006667
  0.659864 -0.319728  0.000000      0.006667
  0.653061 -0.306122  0.000000      0.006667
  0.646259 -0.292517  0.000000      0.006667
  0.639456 -0.278912  0.000000      0.006667
  0.632653 -0.265306  0.000000      0.006667
  0.625850 -0.251701  0.000000      0.006667
  0.619048 -0.238095  0.000000      0.006667
  0.612245 -0.224490  0.000000      0.006667
  0.605442 -0.210884  0.000000      0.006667
[...]
  0.095238  0.095238  0.000000      0.006667
  0.088435  0.088435  0.000000      0.006667
  0.081633  0.081633  0.000000      0.006667
  0.074830  0.074830  0.000000      0.006667
  0.068027  0.068027  0.000000      0.006667
  0.061224  0.061224  0.000000      0.006667
  0.054422  0.054422  0.000000      0.006667
  0.047619  0.047619  0.000000      0.006667
  0.040816  0.040816  0.000000      0.006667
  0.034014  0.034014  0.000000      0.006667
  0.027211  0.027211  0.000000      0.006667
  0.020408  0.020408  0.000000      0.006667
  0.013605  0.013605  0.000000      0.006667
  0.006803  0.006803  0.000000      0.006667
  0.000000  0.000000  0.000000      0.006667

 Following cartesian coordinates:
            Coordinates               Weight
  0.000000  0.000000  0.000000      0.006667
  0.003308  0.000000  0.000000      0.006667
  0.006615  0.000000  0.000000      0.006667
  0.009923  0.000000  0.000000      0.006667
  0.013230  0.000000  0.000000      0.006667
  0.016538  0.000000  0.000000      0.006667
  0.019846  0.000000  0.000000      0.006667
  0.023153  0.000000  0.000000      0.006667
  0.026461  0.000000  0.000000      0.006667
  0.029769  0.000000  0.000000      0.006667
  0.033076  0.000000  0.000000      0.006667
  0.036384  0.000000  0.000000      0.006667
  0.039691  0.000000  0.000000      0.006667
  0.042999  0.000000  0.000000      0.006667
  0.046307  0.000000  0.000000      0.006667
  0.049614  0.000000  0.000000      0.006667
  0.052922  0.000000  0.000000      0.006667
  0.056229  0.000000  0.000000      0.006667
  0.059537  0.000000  0.000000      0.006667
  0.062845  0.000000  0.000000      0.006667
  0.066152  0.000000  0.000000      0.006667
  0.069460  0.000000  0.000000      0.006667
  0.072768  0.000000  0.000000      0.006667
  0.076075  0.000000  0.000000      0.006667
  0.079383  0.000000  0.000000      0.006667
  0.082690  0.000000  0.000000      0.006667
  0.085998  0.000000  0.000000      0.006667
  0.089306  0.000000  0.000000      0.006667
  0.092613  0.000000  0.000000      0.006667
  0.095921  0.000000  0.000000      0.006667
  0.099229  0.000000  0.000000      0.006667
  0.102536  0.000000  0.000000      0.006667
  0.105844  0.000000  0.000000      0.006667
  0.109151  0.000000  0.000000      0.006667
  0.112459  0.000000  0.000000      0.006667
  0.115767  0.000000  0.000000      0.006667
  0.119074  0.000000  0.000000      0.006667
  0.122382  0.000000  0.000000      0.006667
  0.125689  0.000000  0.000000      0.006667
  0.128997  0.000000  0.000000      0.006667
  0.132305  0.000000  0.000000      0.006667
  0.135612  0.000000  0.000000      0.006667
  0.138920  0.000000  0.000000      0.006667
  0.142228  0.000000  0.000000      0.006667
  0.145535  0.000000  0.000000      0.006667
  0.148843  0.000000  0.000000      0.006667
  0.152150  0.000000  0.000000      0.006667
  0.155458  0.000000  0.000000      0.006667
  0.158766  0.000000  0.000000      0.006667
  0.162073  0.000000  0.000000      0.006667
  0.162073  0.000000  0.000000      0.006667
  0.160419  0.002864  0.000000      0.006667
  0.158766  0.005729  0.000000      0.006667
  0.157112  0.008593  0.000000      0.006667
  0.155458  0.011458  0.000000      0.006667
  0.153804  0.014322  0.000000      0.006667
  0.152150  0.017187  0.000000      0.006667
  0.150497  0.020051  0.000000      0.006667
  0.148843  0.022916  0.000000      0.006667
  0.147189  0.025780  0.000000      0.006667
[...]
[...]
   0.63945578 -0.31972789  0.00000000       0.007
   0.65306122 -0.32653061  0.00000000       0.007
   0.66666667 -0.33333333  0.00000000       0.007
   0.66666667 -0.33333333  0.00000000       0.007
   0.65986395 -0.31972789  0.00000000       0.007
   0.65306122 -0.30612245  0.00000000       0.007
   0.64625850 -0.29251701  0.00000000       0.007
   0.63945578 -0.27891156  0.00000000       0.007
   0.63265306 -0.26530612  0.00000000       0.007
   0.62585034 -0.25170068  0.00000000       0.007
   0.61904762 -0.23809524  0.00000000       0.007
   0.61224490 -0.22448980  0.00000000       0.007
   0.60544218 -0.21088435  0.00000000       0.007
[...]
   0.09523810  0.09523810  0.00000000       0.007
   0.08843537  0.08843537  0.00000000       0.007
   0.08163265  0.08163265  0.00000000       0.007
   0.07482993  0.07482993  0.00000000       0.007
   0.06802721  0.06802721  0.00000000       0.007
   0.06122449  0.06122449  0.00000000       0.007
   0.05442177  0.05442177  0.00000000       0.007
   0.04761905  0.04761905  0.00000000       0.007
   0.04081633  0.04081633  0.00000000       0.007
   0.03401361  0.03401361  0.00000000       0.007
   0.02721088  0.02721088  0.00000000       0.007
   0.02040816  0.02040816  0.00000000       0.007
   0.01360544  0.01360544  0.00000000       0.007
   0.00680272  0.00680272  0.00000000       0.007
   0.00000000  0.00000000  0.00000000       0.007

 position of ions in fractional coordinates (direct lattice)
   0.66666667  0.33333333  0.44862540
   0.33333333  0.66666667  0.55137460

 position of ions in cartesian coordinates  (Angst):
   2.05668327  1.18742664  7.17800637
   0.00000000  2.37485328  8.82199363

 Euler angles ALPHA=     0.0000000  BETA=     0.0000000

 transformation matrix from SAXIS to cartesian coordinates
     1.0000000 m_x     0.0000000 m_y     0.0000000 m_z
     0.0000000 m_x     1.0000000 m_y     0.0000000 m_z
     0.0000000 m_x     0.0000000 m_y     1.0000000 m_z

 transformation matrix from cartesian coordinates to SAXIS
     1.0000000 m_x     0.0000000 m_y     0.0000000 m_z
     0.0000000 m_x     1.0000000 m_y     0.0000000 m_z
     0.0000000 m_x     0.0000000 m_y     1.0000000 m_z

 k-point   1 :   0.0000 0.0000 0.0000  plane waves:    2906
 k-point   2 :   0.0136-0.0068 0.0000  plane waves:    2906
 k-point   3 :   0.0272-0.0136 0.0000  plane waves:    2898
 k-point   4 :   0.0408-0.0204 0.0000  plane waves:    2890
 k-point   5 :   0.0544-0.0272 0.0000  plane waves:    2870
 k-point   6 :   0.0680-0.0340 0.0000  plane waves:    2866
 k-point   7 :   0.0816-0.0408 0.0000  plane waves:    2874
 k-point   8 :   0.0952-0.0476 0.0000  plane waves:    2882
 k-point   9 :   0.1088-0.0544 0.0000  plane waves:    2870
 k-point  10 :   0.1224-0.0612 0.0000  plane waves:    2878
 k-point  11 :   0.1361-0.0680 0.0000  plane waves:    2894
 k-point  12 :   0.1497-0.0748 0.0000  plane waves:    2886
 k-point  13 :   0.1633-0.0816 0.0000  plane waves:    2902
 k-point  14 :   0.1769-0.0884 0.0000  plane waves:    2902
 k-point  15 :   0.1905-0.0952 0.0000  plane waves:    2898
 k-point  16 :   0.2041-0.1020 0.0000  plane waves:    2886
 k-point  17 :   0.2177-0.1088 0.0000  plane waves:    2878
 k-point  18 :   0.2313-0.1156 0.0000  plane waves:    2886
 k-point  19 :   0.2449-0.1224 0.0000  plane waves:    2894
 k-point  20 :   0.2585-0.1293 0.0000  plane waves:    2894
 k-point  21 :   0.2721-0.1361 0.0000  plane waves:    2894
 k-point  22 :   0.2857-0.1429 0.0000  plane waves:    2894
 k-point  23 :   0.2993-0.1497 0.0000  plane waves:    2890
 k-point  24 :   0.3129-0.1565 0.0000  plane waves:    2894
 k-point  25 :   0.3265-0.1633 0.0000  plane waves:    2886
 k-point  26 :   0.3401-0.1701 0.0000  plane waves:    2878
 k-point  27 :   0.3537-0.1769 0.0000  plane waves:    2878
 k-point  28 :   0.3673-0.1837 0.0000  plane waves:    2866
 k-point  29 :   0.3810-0.1905 0.0000  plane waves:    2878
 k-point  30 :   0.3946-0.1973 0.0000  plane waves:    2886
 k-point  31 :   0.4082-0.2041 0.0000  plane waves:    2882
 k-point  32 :   0.4218-0.2109 0.0000  plane waves:    2874
 k-point  33 :   0.4354-0.2177 0.0000  plane waves:    2874
 k-point  34 :   0.4490-0.2245 0.0000  plane waves:    2882
 k-point  35 :   0.4626-0.2313 0.0000  plane waves:    2866
 k-point  36 :   0.4762-0.2381 0.0000  plane waves:    2874
 k-point  37 :   0.4898-0.2449 0.0000  plane waves:    2862
 k-point  38 :   0.5034-0.2517 0.0000  plane waves:    2858
 k-point  39 :   0.5170-0.2585 0.0000  plane waves:    2842
 k-point  40 :   0.5306-0.2653 0.0000  plane waves:    2822
 k-point  41 :   0.5442-0.2721 0.0000  plane waves:    2822
 k-point  42 :   0.5578-0.2789 0.0000  plane waves:    2818
 k-point  43 :   0.5714-0.2857 0.0000  plane waves:    2818
 k-point  44 :   0.5850-0.2925 0.0000  plane waves:    2810
 k-point  45 :   0.5986-0.2993 0.0000  plane waves:    2818
 k-point  46 :   0.6122-0.3061 0.0000  plane waves:    2810
 k-point  47 :   0.6259-0.3129 0.0000  plane waves:    2802
 k-point  48 :   0.6395-0.3197 0.0000  plane waves:    2786
 k-point  49 :   0.6531-0.3265 0.0000  plane waves:    2786
 k-point  50 :   0.6667-0.3333 0.0000  plane waves:    2772
 k-point  51 :   0.6667-0.3333 0.0000  plane waves:    2772
 k-point  52 :   0.6599-0.3197 0.0000  plane waves:    2788
 k-point  53 :   0.6531-0.3061 0.0000  plane waves:    2796
 k-point  54 :   0.6463-0.2925 0.0000  plane waves:    2820
 k-point  55 :   0.6395-0.2789 0.0000  plane waves:    2812
 k-point  56 :   0.6327-0.2653 0.0000  plane waves:    2828
 k-point  57 :   0.6259-0.2517 0.0000  plane waves:    2840
 k-point  58 :   0.6190-0.2381 0.0000  plane waves:    2832
 k-point  59 :   0.6122-0.2245 0.0000  plane waves:    2832
 k-point  60 :   0.6054-0.2109 0.0000  plane waves:    2832
[...]
 k-point 136 :   0.0952 0.0952 0.0000  plane waves:    2898
 k-point 137 :   0.0884 0.0884 0.0000  plane waves:    2902
 k-point 138 :   0.0816 0.0816 0.0000  plane waves:    2902
 k-point 139 :   0.0748 0.0748 0.0000  plane waves:    2886
 k-point 140 :   0.0680 0.0680 0.0000  plane waves:    2894
 k-point 141 :   0.0612 0.0612 0.0000  plane waves:    2878
 k-point 142 :   0.0544 0.0544 0.0000  plane waves:    2870
 k-point 143 :   0.0476 0.0476 0.0000  plane waves:    2882
 k-point 144 :   0.0408 0.0408 0.0000  plane waves:    2874
 k-point 145 :   0.0340 0.0340 0.0000  plane waves:    2866
 k-point 146 :   0.0272 0.0272 0.0000  plane waves:    2870
 k-point 147 :   0.0204 0.0204 0.0000  plane waves:    2890
 k-point 148 :   0.0136 0.0136 0.0000  plane waves:    2898
 k-point 149 :   0.0068 0.0068 0.0000  plane waves:    2906
 k-point 150 :   0.0000 0.0000 0.0000  plane waves:    2906

 maximum and minimum number of plane-waves per node :       736      686

 maximum number of plane-waves:      2906
 maximum index in each direction:
   IXMAX=    4   IYMAX=    4   IZMAX=   18
   IXMIN=   -5   IYMIN=   -4   IZMIN=  -18

 parallel 3D FFT for wavefunctions:
    minimum data exchange during FFTs selected (reduces bandwidth)
 parallel 3D FFT for charge:
    minimum data exchange during FFTs selected (reduces bandwidth)

 initial charge density was supplied:
 number of electron      10.0000000 magnetization      -0.0000673     -0.0000674     -0.0000685
 keeping initial charge density in first step

 Maximum index for augmentation-charges         3590 (set IRDMAX)

 First call to EWALD:  gamma=   0.287
 Maximum number of real-space cells 4x 4x 1
 Maximum number of reciprocal cells 2x 2x 6

--------------------------------------- Ionic step        1  -------------------------------------------

--------------------------------------- Iteration      1(   1)  ---------------------------------------

 eigenvalue-minimisations  :  9680
 total energy-change (2. order) : 0.3398259E+02  (-0.1483895E+03)
 number of electron      10.0000000 magnetization      -0.0000673     -0.0000674     -0.0000685
 augmentation part       10.0000000 magnetization      -0.0000673     -0.0000674     -0.0000685

 Free energy of the ion-electron system (eV)
  alpha Z        PSCENC =         2.97593478
  Ewald energy   TEWEN  =       213.91894841
  -Hartree energ DENC   =      -472.99248438
  -exchange      EXHF   =         0.00000000
  -V(xc)+E(xc)   XCENC  =       -92.30401033
  PAW double counting   =       366.51953697     -258.76151351
  entropy T*S    EENTRO =        -0.00007889
  eigenvalues    EBANDS =       -25.26591167
  atomic energy  EATOM  =       299.89217194
  Solvation  Ediel_sol  =         0.00000000
  free energy    TOTEN  =        33.98259331 eV

  energy without entropy =       33.98267220  energy(sigma->0) =       33.98263276

[...]

 eigenvalue-minimisations  : 14136
 total energy-change (2. order) :-0.3872897E+02  (-0.3582325E+02)
 number of electron      10.0000000 magnetization      -0.0000673     -0.0000674     -0.0000685
 augmentation part       10.0000000 magnetization      -0.0000673     -0.0000674     -0.0000685

[...]

 total charge

# of ion       s       p       d       f       tot
    1        1.577   1.843   0.081   0.012   3.513
    2        1.577   1.843   0.081   0.012   3.513
tot          3.153   3.687   0.161   0.024   7.025

 magnetization (x)

[...]

 magnetization (y)

[...]

 magnetization (z)

[...]

 eigenvalue-minimisations  :  7272
 total energy-change (2. order) : 0.5309175E-10  (-0.7122168E-10)
 number of electron      10.0000000 magnetization      -0.0000673     -0.0000674     -0.0000685
 augmentation part       10.0000000 magnetization      -0.0000673     -0.0000674     -0.0000685

[...]

--------------------------------------- Iteration      1(  13)  ---------------------------------------

 eigenvalue-minimisations  :  6752
 total energy-change (2. order) :-0.1760441E-09  (-0.3735795E-10)
 number of electron      10.0000000 magnetization      -0.0000673     -0.0000674     -0.0000685
 augmentation part       10.0000000 magnetization      -0.0000673     -0.0000674     -0.0000685

 Free energy of the ion-electron system (eV)
  alpha Z        PSCENC =         2.97593478
  Ewald energy   TEWEN  =       213.91894841
  -Hartree energ DENC   =      -472.99248438
  -exchange      EXHF   =         0.00000000
  -V(xc)+E(xc)   XCENC  =       -92.30401033
  PAW double counting   =       366.51953697     -258.76151351
  entropy T*S    EENTRO =        -0.00000000
  eigenvalues    EBANDS =       -67.49426330
  atomic energy  EATOM  =       299.89217194
  Solvation  Ediel_sol  =         0.00000000
  free energy    TOTEN  =        -8.24567943 eV

  energy without entropy =       -8.24567943  energy(sigma->0) =       -8.24567943

 average (electrostatic) potential at core
  the test charge radii are     1.1712
  (the norm of the test charge is              1.0000)
       1 -80.8595       2 -80.8595

 E-fermi :  -1.9738     XC(G=0):  -3.3503     alpha+bet : -2.6626

 Fermi energy:        -1.9737796782

 k-point     1 :       0.0000    0.0000    0.0000
  band No.  band energies     occupation
      1     -13.5486      1.00000
      2     -13.5486      1.00000
      3      -8.5762      1.00000
      4      -8.5761      1.00000
      5      -3.0801      1.00000
      6      -3.0801      1.00000
      7      -2.3702      1.00000
      8      -2.3702      1.00000
      9      -2.0176      1.00000
     10      -2.0175      1.00000
     11      -0.7735      0.00000
     12      -0.7733      0.00000
     13       0.2971      0.00000
     14       0.2971      0.00000
     15       0.7595      0.00000
     16       0.7595      0.00000
     17       2.0915      0.00000
     18       2.0916      0.00000
     19       2.1660      0.00000
     20       2.1661      0.00000
     21       3.6275      0.00000
     22       3.6276      0.00000
     23       4.5271      0.00000
     24       4.5271      0.00000
     25       4.8533      0.00000
     26       4.8533      0.00000
     27       5.8646      0.00000
     28       5.8646      0.00000
     29       5.9121      0.00000
     30       5.9121      0.00000
     31       6.4987      0.00000
     32       6.4988      0.00000

[...]

 k-point   150 :       0.0000    0.0000    0.0000
  band No.  band energies     occupation
      1     -13.5486      1.00000
      2     -13.5486      1.00000
      3      -8.5762      1.00000
      4      -8.5761      1.00000
      5      -3.0801      1.00000
      6      -3.0801      1.00000
      7      -2.3702      1.00000
      8      -2.3702      1.00000
      9      -2.0176      1.00000
     10      -2.0175      1.00000
     11      -0.7735      0.00000
     12      -0.7733      0.00000
     13       0.2971      0.00000
     14       0.2971      0.00000
     15       0.7595      0.00000
     16       0.7595      0.00000
     17       2.0915      0.00000
     18       2.0916      0.00000
     19       2.1660      0.00000
     20       2.1661      0.00000
     21       3.6275      0.00000
     22       3.6276      0.00000
     23       4.5271      0.00000
     24       4.5271      0.00000
     25       4.8533      0.00000
     26       4.8533      0.00000
     27       5.8646      0.00000
     28       5.8646      0.00000
     29       5.9121      0.00000
     30       5.9121      0.00000
     31       6.4987      0.00000
     32       6.4988      0.00000

 soft charge-density along one line, spin component           1
         0         1         2         3         4         5         6         7         8         9
 total charge-density along one line

[...]

 soft charge-density along one line, spin component           4
         0         1         2         3         4         5         6         7         8         9
 total charge-density along one line

------------------------ aborting loop because EDIFF is reached ----------------------------------------

[...]

  FREE ENERGIE OF THE ION-ELECTRON SYSTEM (eV)
  free  energy   TOTEN  =        -8.24567943 eV

  energy  without entropy=       -8.24567943  energy(sigma->0) =       -8.24567943

 Spin-Orbit-Coupling matrix elements

 Ion:    1  E_soc:      0.0000000
 l=   1
     0.0000000     0.0000000     0.0000000
     0.0000000     0.0000000     0.0000000
     0.0000000     0.0000000     0.0000000
 l=   2
     0.0000000     0.0000000     0.0000000     0.0000000     0.0000000
     0.0000000     0.0000000     0.0000000     0.0000000     0.0000000
     0.0000000     0.0000000     0.0000000     0.0000000     0.0000000
     0.0000000     0.0000000     0.0000000     0.0000000     0.0000000
     0.0000000     0.0000000     0.0000000     0.0000000     0.0000000
 l=   3
     0.0000000     0.0000000     0.0000000     0.0000000     0.0000000     0.0000000     0.0000000
     0.0000000     0.0000000     0.0000000     0.0000000     0.0000000     0.0000000     0.0000000
     0.0000000     0.0000000     0.0000000     0.0000000     0.0000000     0.0000000     0.0000000
     0.0000000     0.0000000     0.0000000     0.0000000     0.0000000     0.0000000     0.0000000
     0.0000000     0.0000000     0.0000000     0.0000000     0.0000000     0.0000000     0.0000000
     0.0000000     0.0000000     0.0000000     0.0000000     0.0000000     0.0000000     0.0000000
     0.0000000     0.0000000     0.0000000     0.0000000     0.0000000     0.0000000     0.0000000

 Ion:    2  E_soc:      0.0000000
 l=   1
     0.0000000     0.0000000     0.0000000
     0.0000000     0.0000000     0.0000000
     0.0000000     0.0000000     0.0000000
 l=   2
     0.0000000     0.0000000     0.0000000     0.0000000     0.0000000
     0.0000000     0.0000000     0.0000000     0.0000000     0.0000000
     0.0000000     0.0000000     0.0000000     0.0000000     0.0000000
     0.0000000     0.0000000     0.0000000     0.0000000     0.0000000
     0.0000000     0.0000000     0.0000000     0.0000000     0.0000000
 l=   3
     0.0000000     0.0000000     0.0000000     0.0000000     0.0000000     0.0000000     0.0000000
     0.0000000     0.0000000     0.0000000     0.0000000     0.0000000     0.0000000     0.0000000
     0.0000000     0.0000000     0.0000000     0.0000000     0.0000000     0.0000000     0.0000000
     0.0000000     0.0000000     0.0000000     0.0000000     0.0000000     0.0000000     0.0000000
     0.0000000     0.0000000     0.0000000     0.0000000     0.0000000     0.0000000     0.0000000
     0.0000000     0.0000000     0.0000000     0.0000000     0.0000000     0.0000000     0.0000000
     0.0000000     0.0000000     0.0000000     0.0000000     0.0000000     0.0000000     0.0000000

 total charge

[...]

 magnetization (x)

[...]

 magnetization (y)

[...]

 magnetization (z)

# of ion       s       p       d       f       tot
    1       -0.000  -0.000  -0.000  -0.000  -0.000
    2       -0.000  -0.000  -0.000  -0.000  -0.000
tot         -0.000  -0.000  -0.000  -0.000  -0.000