 vasp.6.4.2 20Jul23 (build Nov 14 2023 12:59:38) complex

 executed on             LinuxIFC date 2023.12.29  15:49:01

 INCAR:
   ENCUT = 234.789750
   ALGO = Normal
   NELM = 200
   NELMIN = 6
   NELMDL = -12
   EDIFF = 1.0E-6
   AMIX = 0.1
   BMIX = 0.0001
   PREC = Accurate
   IVDW = 0
   ISPIN = 1
   ADDGRID = .TRUE.
   LASPH = .TRUE.
   LREAL = .FALSE.
   LEPSILON = .TRUE.
   ISMEAR = 0
   SIGMA = 0.01
   LORBIT = 10
   NEDOS = 6001
   NWRITE = 3
   LWAVE = .FALSE.
   LCHARG = .FALSE.
   ICHARG = 2
   LELF = .FALSE.
   LVTOT = .FALSE.
   LPLANE = .TRUE.

 POTCAR:    PAW_PBE As_GW 20Mar2012
|           W    W    AA    RRRRR   N    N  II  N    N   GGGG   !!!           |
|           W    W   A  A   R    R  NN   N  II  NN   N  G    G  !!!           |
|           W    W  A    A  R    R  N N  N  II  N N  N  G       !!!           |
|           W WW W  AAAAAA  RRRRR   N  N N  II  N  N N  G  GGG   !            |
|           WW  WW  A    A  R   R   N   NN  II  N   NN  G    G                |
|           W    W  A    A  R    R  N    N  II  N    N   GGGG   !!!           |
|     For optimal performance we recommend to set                             |
|       NCORE = 2 up to number-of-cores-per-socket                            |
|     This setting can greatly improve the performance of VASP for DFT.       |
|     The default, NCORE=1 might be grossly inefficient on modern             |
|     multi-core architectures or massively parallel machines. Do your        |
|     Unfortunately you need to use the default for GW and RPA                |
|     calculations (for HF NCORE is supported but not extensively tested      |
|     yet).                                                                   |

   TITEL  = PAW_PBE As_GW 20Mar2012
   POMASS =   74.922; ZVAL   =    5.000    mass and valenz
   ENMAX  =  208.702; ENMIN  =  156.526 eV

  PAW_PBE As_GW 20Mar2012               :

 POSCAR: OUTCAR.0002.-1.out 1.0e-02
  positions in cartesian coordinates
 exchange correlation table for  LEXCH =        8
   RHO(1)=    0.500       N(1)  =     2000
   RHO(2)=  100.500       N(2)  =     4000

 ion  position               nearest neighbor table
   1  0.668  0.336  0.456-   2 2.50   2 2.50   2 2.52
   2  0.332  0.664  0.544-   1 2.50   1 2.50   1 2.52

  LATTYP: Found a hexagonal cell.
 ALAT       =     3.6068925390
 C/A-ratio  =     4.4359513978

  Lattice vectors:

 A1 = (   3.6068925390,   0.0000000000,   0.0000000000)
 A2 = (  -1.8034462695,   3.1236605675,   0.0000000000)
 A3 = (   0.0000000000,   0.0000000000,  16.0000000000)

Analysis of symmetry for initial positions (statically):
 Subroutine PRICEL returns:
 Original cell was already a primitive cell.

 Routine SETGRP: Setting up the symmetry group for a
 hexagonal supercell.

 Subroutine GETGRP returns: Found  4 space group operations
 (whereof  4 operations were pure point group operations)
 out of a pool of 24 trial point group operations.

The static configuration has the point symmetry C_2h.

Analysis of symmetry for dynamics (positions and initial velocities):
 Subroutine PRICEL returns:
 Original cell was already a primitive cell.

[...]

The dynamic configuration has the point symmetry C_2h.

 Subroutine INISYM returns: Found  4 space group operations
 (whereof  4 operations are pure point group operations),
 and found     1 'primitive' translations

 irot  :   1
 isymop:   1   0   0
           0   1   0
           0   0   1

 gtrans:     0.0000000     0.0000000     0.0000000

 ptrans:     0.0000000     0.0000000     0.0000000

 rotmap:
 (   1->   1)  (   2->   2)

[...]

 irot  :   4
 isymop:  -1   1   0
           0   1   0
           0   0   1

 gtrans:     0.0000000     0.0000000     0.0000000

 ptrans:     0.0000000     0.0000000     0.0000000

 rotmap:
 (   1->   1)  (   2->   2)

                                     Primitive cell

  volume of cell :     180.2673

  direct lattice vectors                    reciprocal lattice vectors
     3.606892539  0.000000000  0.000000000     0.277246962  0.160068608  0.000000000
    -1.803446269  3.123660567  0.000000000     0.000000000  0.320137217  0.000000000
     0.000000000  0.000000000 16.000000000     0.000000000  0.000000000  0.062500000

  length of vectors
     3.606892539  3.606892539 16.000000000     0.320137217  0.320137217  0.062500000

  position of ions in fractional coordinates (direct lattice)
     0.667798523  0.335597045  0.456343136
     0.332201477  0.664402955  0.543656864

  ion indices of the primitive-cell ions
   primitive index   ion index
                 1           1
                 2           2

 KPOINTS: kpoints

Automatic generation of k-mesh.
 Grid dimensions read from file:
 generate k-points for:   13   13    1

 Generating k-lattice:

  Cartesian coordinates                     Fractional coordinates (reciprocal lattice)
     0.021326689  0.012312970  0.000000000     0.076923077  0.000000000  0.000000000
     0.000000000  0.024625940  0.000000000     0.000000000  0.076923077  0.000000000
     0.000000000  0.000000000  0.062500000     0.000000000  0.000000000  1.000000000

  Length of vectors
     0.024625940  0.024625940  0.062500000

  Shift w.r.t. Gamma in fractional coordinates (k-lattice)
     0.000000000  0.000000000  0.000000000

 Subroutine IBZKPT returns following result:

 Found     49 irreducible k-points:

 Following reciprocal coordinates:
            Coordinates               Weight
  0.000000  0.000000  0.000000      1.000000
  0.076923  0.000000  0.000000      4.000000
  0.000000  0.076923  0.000000      2.000000
  0.153846  0.000000  0.000000      4.000000
  0.000000  0.153846  0.000000      2.000000
  0.230769 -0.000000  0.000000      4.000000
  0.000000  0.230769  0.000000      2.000000
  0.307692  0.000000  0.000000      4.000000
  0.000000  0.307692  0.000000      2.000000
  0.384615  0.000000  0.000000      4.000000
  0.000000  0.384615  0.000000      2.000000
  0.461538 -0.000000  0.000000      4.000000
  0.000000  0.461538  0.000000      2.000000
  0.076923  0.076923  0.000000      4.000000
 -0.153846  0.076923  0.000000      2.000000
  0.153846  0.076923  0.000000      4.000000
 -0.076923  0.230769  0.000000      4.000000
 -0.230769  0.153846  0.000000      4.000000
  0.230769  0.076923  0.000000      4.000000
 -0.076923  0.307692  0.000000      4.000000
 -0.307692  0.230769  0.000000      4.000000
  0.307692  0.076923  0.000000      4.000000
 -0.076923  0.384615  0.000000      4.000000
 -0.384615  0.307692  0.000000      4.000000
  0.384615  0.076923  0.000000      4.000000
 -0.076923  0.461538  0.000000      4.000000
 -0.461538  0.384615  0.000000      4.000000
  0.461538  0.076923  0.000000      4.000000
 -0.076923 -0.461538  0.000000      2.000000
  0.153846  0.153846  0.000000      4.000000
 -0.307692  0.153846  0.000000      2.000000
  0.230769  0.153846  0.000000      4.000000
 -0.153846  0.384615  0.000000      4.000000
 -0.384615  0.230769  0.000000      4.000000
  0.307692  0.153846  0.000000      4.000000
 -0.153846  0.461538  0.000000      4.000000
 -0.461538  0.307692  0.000000      4.000000
  0.384615  0.153846  0.000000      4.000000
 -0.153846 -0.461538  0.000000      4.000000
  0.461538  0.384615  0.000000      4.000000
  0.230769  0.230769  0.000000      4.000000
 -0.461538  0.230769  0.000000      2.000000
  0.307692  0.230769  0.000000      4.000000
 -0.230769 -0.461538  0.000000      4.000000
  0.461538  0.307692  0.000000      4.000000
  0.384615  0.230769  0.000000      4.000000
 -0.230769 -0.384615  0.000000      2.000000
  0.307692  0.307692  0.000000      4.000000
  0.384615  0.307692  0.000000      2.000000

 Following cartesian coordinates:
            Coordinates               Weight
  0.000000  0.000000  0.000000      1.000000
  0.021327  0.012313  0.000000      4.000000
  0.000000  0.024626  0.000000      2.000000
  0.042653  0.024626  0.000000      4.000000
  0.000000  0.049252  0.000000      2.000000
  0.063980  0.036939  0.000000      4.000000
  0.000000  0.073878  0.000000      2.000000
  0.085307  0.049252  0.000000      4.000000
  0.000000  0.098504  0.000000      2.000000
  0.106633  0.061565  0.000000      4.000000
  0.000000  0.123130  0.000000      2.000000
  0.127960  0.073878  0.000000      4.000000
  0.000000  0.147756  0.000000      2.000000
  0.021327  0.036939  0.000000      4.000000
 -0.042653  0.000000  0.000000      2.000000
  0.042653  0.049252  0.000000      4.000000
 -0.021327  0.061565  0.000000      4.000000
 -0.063980  0.012313  0.000000      4.000000
  0.063980  0.061565  0.000000      4.000000
 -0.021327  0.086191  0.000000      4.000000
 -0.085307  0.024626  0.000000      4.000000
  0.085307  0.073878  0.000000      4.000000
 -0.021327  0.110817  0.000000      4.000000
 -0.106633  0.036939  0.000000      4.000000
  0.106633  0.086191  0.000000      4.000000
 -0.021327  0.135443  0.000000      4.000000
 -0.127960  0.049252  0.000000      4.000000
  0.127960  0.098504  0.000000      4.000000
 -0.021327 -0.160069  0.000000      2.000000
  0.042653  0.073878  0.000000      4.000000
 -0.085307  0.000000  0.000000      2.000000
  0.063980  0.086191  0.000000      4.000000
 -0.042653  0.098504  0.000000      4.000000
 -0.106633  0.012313  0.000000      4.000000
  0.085307  0.098504  0.000000      4.000000
 -0.042653  0.123130  0.000000      4.000000
 -0.127960  0.024626  0.000000      4.000000
  0.106633  0.110817  0.000000      4.000000
 -0.042653 -0.172382  0.000000      4.000000
  0.127960  0.197008  0.000000      4.000000
  0.063980  0.110817  0.000000      4.000000
 -0.127960  0.000000  0.000000      2.000000
  0.085307  0.123130  0.000000      4.000000
 -0.063980 -0.184695  0.000000      4.000000
  0.127960  0.172382  0.000000      4.000000
  0.106633  0.135443  0.000000      4.000000
 -0.063980 -0.160069  0.000000      2.000000
  0.085307  0.147756  0.000000      4.000000
  0.106633  0.160069  0.000000      2.000000

 Subroutine IBZKPT_HF returns following result:

 Found    169 k-points in 1st BZ
 the following    169 k-points will be used (e.g. in the exchange kernel)
 Following reciprocal coordinates:   # in IRBZ
  0.000000  0.000000  0.000000    0.00591716   1 t-inv F
  0.076923  0.000000  0.000000    0.00591716   2 t-inv F
  0.000000  0.076923  0.000000    0.00591716   3 t-inv F
  0.153846  0.000000  0.000000    0.00591716   4 t-inv F
  0.000000  0.153846  0.000000    0.00591716   5 t-inv F
  0.230769 -0.000000  0.000000    0.00591716   6 t-inv F
  0.000000  0.230769  0.000000    0.00591716   7 t-inv F
  0.307692  0.000000  0.000000    0.00591716   8 t-inv F
  0.000000  0.307692  0.000000    0.00591716   9 t-inv F
  0.384615  0.000000  0.000000    0.00591716  10 t-inv F
  0.000000  0.384615  0.000000    0.00591716  11 t-inv F
  0.461538 -0.000000  0.000000    0.00591716  12 t-inv F
  0.000000  0.461538  0.000000    0.00591716  13 t-inv F
  0.076923  0.076923  0.000000    0.00591716  14 t-inv F
 -0.153846  0.076923  0.000000    0.00591716  15 t-inv F
  0.153846  0.076923  0.000000    0.00591716  16 t-inv F
 -0.076923  0.230769  0.000000    0.00591716  17 t-inv F
 -0.230769  0.153846  0.000000    0.00591716  18 t-inv F
[...]
  (the norm of the test charge is              1.0000)
       1 -57.2655       2 -57.2655

 E-fermi :  -2.9266     XC(G=0):  -3.2503     alpha+bet : -2.4472

 Fermi energy:        -2.9266132216

[...]

 k-point    49 :       0.3846    0.3077    0.0000
  band No.  band energies     occupation
      1     -13.2709      2.00000
      2     -12.6339      2.00000
      3      -7.2848      2.00000
      4      -5.2613      2.00000
      5      -4.7388      2.00000
      6      -0.9338      0.00000
      7       1.3022      0.00000
      8       1.6738      0.00000
      9       5.1372      0.00000
     10       5.5344      0.00000
     11       5.6578      0.00000
     12       6.1546      0.00000
     13       6.6837      0.00000
     14       6.9934      0.00000
     15       7.2434      0.00000
     16       7.3754      0.00000

 soft charge-density along one line, spin component           1
         0         1         2         3         4         5         6         7         8         9
 total charge-density along one line

------------------------ aborting loop because EDIFF is reached ----------------------------------------

 total charge

# of ion       s       p       d       tot
    1        1.291   1.352   0.041   2.684
    2        1.291   1.352   0.041   2.684
tot          2.582   2.704   0.082   5.368

  FORCE on cell =-STRESS in cart. coord.  units (eV):
  Direction    XX          YY          ZZ          XY          YZ          ZX
  Alpha Z     5.26384     5.26384     5.26384
  Ewald     617.93807   616.38298  -856.09818     0.00000     0.50171     0.00000
  Hartree   656.30931   656.04857  -642.27122    -0.00000     0.05042    -0.00000
  E(xc)     -37.00929   -36.99956   -37.42771     0.00000    -0.00895     0.00000
  Local   -1403.08764 -1401.40011  1363.47371    -0.00005    -0.53008    -0.00000
  n-local    74.33748    74.18611    75.01985    -0.25411     0.08574    -0.14123
  augment    -2.78845    -2.78478    -3.18865     0.00006    -0.00697     0.00000
  Kinetic    89.04722    89.22305    95.18446    -0.04512     0.05793    -0.34195
  Fock        0.00000     0.00000     0.00000     0.00000     0.00000     0.00000
  Total       0.01054    -0.07991    -0.04391     0.00000     0.14980     0.00000
  in kB       0.09371    -0.71020    -0.39022     0.00000     1.33139     0.00000

 VOLUME and BASIS-vectors are now :
  energy-cutoff  :      234.79
  volume of cell :      180.27
      direct lattice vectors                 reciprocal lattice vectors
     3.606892539  0.000000000  0.000000000     0.277246962  0.160068608  0.000000000
    -1.803446269  3.123660567  0.000000000     0.000000000  0.320137217  0.000000000
     0.000000000  0.000000000 16.000000000     0.000000000  0.000000000  0.062500000

  length of vectors
     3.606892539  3.606892539 16.000000000     0.320137217  0.320137217  0.062500000

 FORCES acting on ions
    electron-ion (+dipol)            ewald-force                    non-local-force                 convergence-correction
   0.746E-06 0.293E+00 0.130E+03   -.492E-09 -.359E+00 -.136E+03   0.104E-16 -.412E-01 0.585E+01   0.135E-06 0.325E-04 -.261E-02
   -.750E-06 -.293E+00 -.130E+03   0.492E-09 0.359E+00 0.136E+03   0.226E-16 0.412E-01 -.585E+01   -.135E-06 -.325E-04 0.261E-02
   -.365E-08 -.747E-08 0.258E-10   -.111E-14 -.255E-14 0.000E+00   0.330E-16 0.000E+00 -.888E-15   0.350E-12 0.730E-12 -.481E-13

 POSITION                                       TOTAL-FORCE (eV/Angst)
      1.80345      1.04829      7.30149        -0.000000     -0.107453      0.000212
      0.00000      2.07537      8.69851         0.000000      0.107453     -0.000212
    total drift:                               -0.000000     -0.000000      0.000000

  FREE ENERGIE OF THE ION-ELECTRON SYSTEM (eV)
  free  energy   TOTEN  =        -9.34081922 eV

  energy  without entropy=       -9.34081922  energy(sigma->0) =       -9.34081922

 Linear response reoptimize wavefunctions
 Linear response G [H, r] |phi>, progress :
  Direction:   1

----------------------------------------- Iteration    1(   1)  ---------------------------------------

  free energy    TOTEN  =       -44.10652362 eV

[...]

 Linear response G [H, r] |phi>, progress :
  Direction:   2

[...]

 Linear response G [H, r] |phi>, progress :
  Direction:   3

[...]

  free energy    TOTEN  =       -40.63922212 eV

[...]

 Linear response to external field (no local field effect), progress :
  Direction:   1
  LATTYP: Found a hexagonal cell.
 ALAT       =     3.6068925390
 C/A-ratio  =     4.4359513978

[...]

The dynamic configuration has the point symmetry C_2 .

[...]

 Free energy of the ion-electron system (eV)
  -Hartree energ DENC   =         0.00000000
  -V(xc)+E(xc)   XCENC  =         0.00000000
  PAW double counting   =         0.00000000        0.00000000
  entropy T*S    EENTRO =         0.00000000
  eigenvalues    EBANDS =        -1.95162459
  free energy    TOTEN  =        -1.95162459 eV

  energy without entropy =       -1.95162459

[...]

 change of polarisation eV/A/(eV/A) component  1 :     4.013    -0.689    -0.021
 dielectric tensor                  component  1 :     5.028    -0.691    -0.021

[...]

 Linear response to external field (no local field effect), progress :
  Direction:   3
  LATTYP: Found a hexagonal cell.
 ALAT       =     3.6068925390
 C/A-ratio  =     4.4359513978

[...]

 HEAD OF MICROSCOPIC STATIC DIELECTRIC TENSOR (INDEPENDENT PARTICLE, excluding Hartree and local field effects)
           5.027959     0.000000    -0.000000
           0.000000     5.105867    -0.024230
          -0.000000    -0.024230     2.624030

 Linear response to external field, progress :
  Direction:   1
  LATTYP: Found a hexagonal cell.
 ALAT       =     3.6068925390
 C/A-ratio  =     4.4359513978

[...]

The dynamic configuration has the point symmetry C_2 .

[...]

 PIEZOELECTRIC TENSOR FIELD DIRECTION 1  (e Angst)
     0.00345 -0.00000  0.00000           ( -0.00003 -0.00000  0.00000)
    -0.00000 -0.00058  0.00009           ( -0.00000 -0.00002 -0.00001)
     0.00000  0.00009 -0.00088           (  0.00000 -0.00001  0.00001)

 PIEZOELECTRIC TENSOR FIELD DIRECTION 1  (C/m^2)
     0.00031 -0.00000  0.00000
    -0.00000 -0.00005  0.00001
     0.00000  0.00001 -0.00008

      POSITION         DIRECTION 1           BORN EFFECTIVE CHARGE    (rigid.aug.   ionic)
      1.80345      1.04829      7.30149    -0.01282 -0.00018  0.00087 (  0.81316  5.00000)
      0.00000      2.07537      8.69851    -0.01282  0.00018 -0.00087 (  0.81316  5.00000)
    total drift (improves with k-points):  -0.02565  0.00000  0.00000

[...]

 Linear response to external field, progress :
  Direction:   3
  LATTYP: Found a hexagonal cell.
 ALAT       =     3.6068925390
 C/A-ratio  =     4.4359513978

[...]

----------------------------------------- Iteration    3(  13)  ---------------------------------------

 Broyden mixing:
  rms(total) = 0.63167E-05    rms(broyden)= 0.63161E-05
  rms(prec ) = 0.73391E-05
  weight for this iteration     100.00

 eigenvalues of (default mixing * dielectric matrix)
  average eigenvalue GAMMA=   4.2825
 10.3761  9.9437  7.8588  7.0701  5.3677  1.5091  1.0311  1.0031  1.0031  0.9725
  0.9725

 Free energy of the ion-electron system (eV)
  -Hartree energ DENC   =        -0.12338659
  -V(xc)+E(xc)   XCENC  =         0.00448621
  PAW double counting   =         0.01371359       -0.01363383
  entropy T*S    EENTRO =         0.00000000
  eigenvalues    EBANDS =        -0.05825804
  free energy    TOTEN  =        -0.17707867 eV

  energy without entropy =       -0.17707867

------------------------ aborting loop because EDIFF is reached ----------------------------------------

 change of polarisation eV/A/(eV/A) component  3 :    -0.007    -0.002     0.333
 dielectric tensor                  component  3 :    -0.007    -0.002     1.334

 PIEZOELECTRIC TENSOR FIELD DIRECTION 3  (e Angst)
     0.00096 -0.00000  0.00000           (  0.00000 -0.00000  0.00000)
    -0.00000 -0.00117  0.00090           ( -0.00000 -0.00000  0.00001)
     0.00000  0.00090  0.00007           (  0.00000  0.00001  0.00000)

 PIEZOELECTRIC TENSOR FIELD DIRECTION 3  (C/m^2)
     0.00009 -0.00000  0.00000
    -0.00000 -0.00010  0.00008
     0.00000  0.00008  0.00001

      POSITION         DIRECTION 3           BORN EFFECTIVE CHARGE    (rigid.aug.   ionic)
      1.80345      1.04829      7.30149     0.00000 -0.00055  0.00241 (  0.81316  5.00000)
      0.00000      2.07537      8.69851    -0.00000  0.00060  0.00253 (  0.81316  5.00000)
    total drift (improves with k-points):   0.00000  0.00005  0.00494

[...]

 MACROSCOPIC STATIC DIELECTRIC TENSOR (including local field effects in DFT)
           4.745291     0.000000     0.000000
           0.000000     4.819496    -0.001778
           0.000000    -0.001782     1.334090

  LATTYP: Found a hexagonal cell.
 ALAT       =     3.6068925390
 C/A-ratio  =     4.4359513978

  Lattice vectors:

 A1 = (   3.6068925390,   0.0000000000,   0.0000000000)
 A2 = (  -1.8034462695,   3.1236605675,   0.0000000000)
 A3 = (   0.0000000000,   0.0000000000,  16.0000000000)

Analysis of symmetry for initial positions (statically):
 Subroutine PRICEL returns:
 Original cell was already a primitive cell.

[...]

The static configuration has the point symmetry C_2h.

Analysis of symmetry for dynamics (positions and initial velocities):
 Subroutine PRICEL returns:
 Original cell was already a primitive cell.

 Routine SETGRP: Setting up the symmetry group for a
 hexagonal supercell.

 Subroutine GETGRP returns: Found  4 space group operations
 (whereof  4 operations were pure point group operations)
 out of a pool of 24 trial point group operations.

The dynamic configuration has the point symmetry C_2h.

 Subroutine INISYM returns: Found  4 space group operations
 (whereof  4 operations are pure point group operations),
 and found     1 'primitive' translations

 KPOINTS: kpoints

Automatic generation of k-mesh.
 Grid dimensions read from file:
 generate k-points for:   13   13    1

 Generating k-lattice:

  Cartesian coordinates                     Fractional coordinates (reciprocal lattice)
     0.021326689  0.012312970  0.000000000     0.076923077  0.000000000  0.000000000
     0.000000000  0.024625940  0.000000000     0.000000000  0.076923077  0.000000000
     0.000000000  0.000000000  0.062500000     0.000000000  0.000000000  1.000000000

  Length of vectors
     0.024625940  0.024625940  0.062500000

  Shift w.r.t. Gamma in fractional coordinates (k-lattice)
     0.000000000  0.000000000  0.000000000

 Subroutine IBZKPT returns following result:

 Found     49 irreducible k-points:

 Following reciprocal coordinates:
            Coordinates               Weight
  0.000000  0.000000  0.000000      1.000000
  0.076923  0.000000  0.000000      4.000000
  0.000000  0.076923  0.000000      2.000000
  0.153846  0.000000  0.000000      4.000000
  0.000000  0.153846  0.000000      2.000000
  0.230769 -0.000000  0.000000      4.000000
  0.000000  0.230769  0.000000      2.000000
  0.307692  0.000000  0.000000      4.000000
  0.000000  0.307692  0.000000      2.000000
  0.384615  0.000000  0.000000      4.000000
  0.000000  0.384615  0.000000      2.000000
  0.461538 -0.000000  0.000000      4.000000
  0.000000  0.461538  0.000000      2.000000
  0.076923  0.076923  0.000000      4.000000
 -0.153846  0.076923  0.000000      2.000000
  0.153846  0.076923  0.000000      4.000000
 -0.076923  0.230769  0.000000      4.000000
 -0.230769  0.153846  0.000000      4.000000
  0.230769  0.076923  0.000000      4.000000
 -0.076923  0.307692  0.000000      4.000000
 -0.307692  0.230769  0.000000      4.000000
  0.307692  0.076923  0.000000      4.000000
 -0.076923  0.384615  0.000000      4.000000
 -0.384615  0.307692  0.000000      4.000000
  0.384615  0.076923  0.000000      4.000000
 -0.076923  0.461538  0.000000      4.000000
 -0.461538  0.384615  0.000000      4.000000
  0.461538  0.076923  0.000000      4.000000
 -0.076923 -0.461538  0.000000      2.000000
  0.153846  0.153846  0.000000      4.000000
 -0.307692  0.153846  0.000000      2.000000
  0.230769  0.153846  0.000000      4.000000
 -0.153846  0.384615  0.000000      4.000000
 -0.384615  0.230769  0.000000      4.000000
  0.307692  0.153846  0.000000      4.000000
 -0.153846  0.461538  0.000000      4.000000
 -0.461538  0.307692  0.000000      4.000000
  0.384615  0.153846  0.000000      4.000000
 -0.153846 -0.461538  0.000000      4.000000
  0.461538  0.384615  0.000000      4.000000
  0.230769  0.230769  0.000000      4.000000
 -0.461538  0.230769  0.000000      2.000000
  0.307692  0.230769  0.000000      4.000000
 -0.230769 -0.461538  0.000000      4.000000
  0.461538  0.307692  0.000000      4.000000
  0.384615  0.230769  0.000000      4.000000
 -0.230769 -0.384615  0.000000      2.000000
  0.307692  0.307692  0.000000      4.000000
  0.384615  0.307692  0.000000      2.000000

 Following cartesian coordinates:
            Coordinates               Weight
  0.000000  0.000000  0.000000      1.000000
  0.021327  0.012313  0.000000      4.000000
  0.000000  0.024626  0.000000      2.000000
  0.042653  0.024626  0.000000      4.000000
  0.000000  0.049252  0.000000      2.000000
  0.063980  0.036939  0.000000      4.000000
  0.000000  0.073878  0.000000      2.000000
  0.085307  0.049252  0.000000      4.000000
  0.000000  0.098504  0.000000      2.000000
  0.106633  0.061565  0.000000      4.000000
  0.000000  0.123130  0.000000      2.000000
  0.127960  0.073878  0.000000      4.000000
  0.000000  0.147756  0.000000      2.000000
  0.021327  0.036939  0.000000      4.000000
 -0.042653  0.000000  0.000000      2.000000
  0.042653  0.049252  0.000000      4.000000
 -0.021327  0.061565  0.000000      4.000000
 -0.063980  0.012313  0.000000      4.000000
  0.063980  0.061565  0.000000      4.000000
 -0.021327  0.086191  0.000000      4.000000
 -0.085307  0.024626  0.000000      4.000000
  0.085307  0.073878  0.000000      4.000000
 -0.021327  0.110817  0.000000      4.000000
 -0.106633  0.036939  0.000000      4.000000
  0.106633  0.086191  0.000000      4.000000
 -0.021327  0.135443  0.000000      4.000000
 -0.127960  0.049252  0.000000      4.000000
  0.127960  0.098504  0.000000      4.000000
 -0.021327 -0.160069  0.000000      2.000000
  0.042653  0.073878  0.000000      4.000000
 -0.085307  0.000000  0.000000      2.000000
  0.063980  0.086191  0.000000      4.000000
 -0.042653  0.098504  0.000000      4.000000
 -0.106633  0.012313  0.000000      4.000000
  0.085307  0.098504  0.000000      4.000000
 -0.042653  0.123130  0.000000      4.000000
 -0.127960  0.024626  0.000000      4.000000
  0.106633  0.110817  0.000000      4.000000
 -0.042653 -0.172382  0.000000      4.000000
  0.127960  0.197008  0.000000      4.000000
  0.063980  0.110817  0.000000      4.000000
 -0.127960  0.000000  0.000000      2.000000
  0.085307  0.123130  0.000000      4.000000
 -0.063980 -0.184695  0.000000      4.000000
  0.127960  0.172382  0.000000      4.000000
  0.106633  0.135443  0.000000      4.000000
 -0.063980 -0.160069  0.000000      2.000000
  0.085307  0.147756  0.000000      4.000000
  0.106633  0.160069  0.000000      2.000000

 MACROSCOPIC STATIC DIELECTRIC TENSOR (including local field effects in DFT)
           4.745291     0.000000     0.000000
           0.000000     4.819496    -0.001778
           0.000000    -0.001782     1.334090

 PIEZOELECTRIC TENSOR (including local field effects)  for field in x, y, z        (e  Angst)
          XX          YY          ZZ          XY          YZ          ZX
  x     0.00000     0.00000     0.00000     0.00000     0.00000     0.00000
  y     0.00000     0.00000     0.00000     0.00000     0.00000     0.00000
  z     0.00000     0.00000     0.00000     0.00000     0.00000     0.00000

 PIEZOELECTRIC TENSOR (including local field effects)  for field in x, y, z        (C/m^2)
          XX          YY          ZZ          XY          YZ          ZX
  x     0.00000     0.00000     0.00000     0.00000     0.00000     0.00000
  y     0.00000     0.00000     0.00000     0.00000     0.00000     0.00000
  z     0.00000     0.00000     0.00000     0.00000     0.00000     0.00000

 BORN EFFECTIVE CHARGES (including local field effects) (in |e|, cummulative output)
 ion    1
    1     0.00000     0.00000     0.00000
    2     0.00000     0.00000     0.00000
    3     0.00000     0.00000     0.00000
 ion    2
    1     0.00000     0.00000     0.00000
    2     0.00000     0.00000     0.00000
    3     0.00000     0.00000     0.00000

 total charge

# of ion       s       p       d       tot
    1        1.291   1.352   0.041   2.684
    2        1.291   1.352   0.041   2.684
tot          2.582   2.704   0.082   5.368