 vasp.6.4.2 20Jul23 (build Nov 14 2023 12:59:38) complex

 executed on             LinuxIFC date 2023.12.29  15:36:49

 INCAR:
   ENCUT = 234.789750
   ALGO = Normal
   NELM = 200
   NELMIN = 6
   NELMDL = -12
   EDIFF = 1.0E-6
   AMIX = 0.1
   BMIX = 0.0001
   PREC = Accurate
   IVDW = 0
   ISPIN = 1
   ADDGRID = .TRUE.
   LASPH = .TRUE.
   LREAL = .FALSE.
   NSW = 1
   EDIFFG = -0.010
   IBRION = 8
   POTIM = 0.01
   STRESSTYPE = 2
   LEPSILON = .FALSE.
   ISMEAR = 0
   SIGMA = 0.01
   LORBIT = 10
   NEDOS = 6001
   NWRITE = 3
   LWAVE = .FALSE.
   LCHARG = .FALSE.
   ICHARG = 2
   LELF = .FALSE.
   LVTOT = .FALSE.
   LPLANE = .TRUE.

 POTCAR:    PAW_PBE As_GW 20Mar2012
|           W    W    AA    RRRRR   N    N  II  N    N   GGGG   !!!           |
|           W    W   A  A   R    R  NN   N  II  NN   N  G    G  !!!           |
|           W    W  A    A  R    R  N N  N  II  N N  N  G       !!!           |
|           W WW W  AAAAAA  RRRRR   N  N N  II  N  N N  G  GGG   !            |
|           WW  WW  A    A  R   R   N   NN  II  N   NN  G    G                |
|           W    W  A    A  R    R  N    N  II  N    N   GGGG   !!!           |
|     For optimal performance we recommend to set                             |
|       NCORE = 2 up to number-of-cores-per-socket                            |
|     This setting can greatly improve the performance of VASP for DFT.       |
|     The default, NCORE=1 might be grossly inefficient on modern             |
|     multi-core architectures or massively parallel machines. Do your        |
|     Unfortunately you need to use the default for GW and RPA                |
|     calculations (for HF NCORE is supported but not extensively tested      |
|     yet).                                                                   |

   TITEL  = PAW_PBE As_GW 20Mar2012
   POMASS =   74.922; ZVAL   =    5.000    mass and valenz
   ENMAX  =  208.702; ENMIN  =  156.526 eV

  PAW_PBE As_GW 20Mar2012               :

 POSCAR: pnictogen honeycomb monolayer
  positions in direct lattice
  velocities in cartesian coordinates
 exchange correlation table for  LEXCH =        8
   RHO(1)=    0.500       N(1)  =     2000
   RHO(2)=  100.500       N(2)  =     4000
|           W    W    AA    RRRRR   N    N  II  N    N   GGGG   !!!           |
|           W    W   A  A   R    R  NN   N  II  NN   N  G    G  !!!           |
|           W    W  A    A  R    R  N N  N  II  N N  N  G       !!!           |
|           W WW W  AAAAAA  RRRRR   N  N N  II  N  N N  G  GGG   !            |
|           WW  WW  A    A  R   R   N   NN  II  N   NN  G    G                |
|           W    W  A    A  R    R  N    N  II  N    N   GGGG   !!!           |
|     The following INCAR tags have not been used:                            |
|     In line 28: STRESSTYPE                                                  |
|     Please check whether the tags are spelled correctly, have the           |
|     correct format, and do not appear multiple times in the file.           |

 ion  position               nearest neighbor table
   1  0.667  0.333  0.456-   2 2.51   2 2.51   2 2.51
   2  0.333  0.667  0.544-   1 2.51   1 2.51   1 2.51

  LATTYP: Found a hexagonal cell.
 ALAT       =     3.6068925390
 C/A-ratio  =     4.4359513978

  Lattice vectors:

 A1 = (   3.6068925390,   0.0000000000,   0.0000000000)
 A2 = (  -1.8034462695,   3.1236605675,   0.0000000000)
 A3 = (   0.0000000000,   0.0000000000,  16.0000000000)

Analysis of symmetry for initial positions (statically):
 Subroutine PRICEL returns:
 Original cell was already a primitive cell.

 Routine SETGRP: Setting up the symmetry group for a
 hexagonal supercell.

 Subroutine GETGRP returns: Found 12 space group operations
 (whereof 12 operations were pure point group operations)
 out of a pool of 24 trial point group operations.

The static configuration has the point symmetry D_3d.

Analysis of symmetry for dynamics (positions and initial velocities):
 Subroutine PRICEL returns:
 Original cell was already a primitive cell.

[...]

The dynamic configuration has the point symmetry D_3d.

 Subroutine INISYM returns: Found 12 space group operations
 (whereof 12 operations are pure point group operations),
 and found     1 'primitive' translations

 irot  :   1
 isymop:   1   0   0
           0   1   0
           0   0   1

 gtrans:     0.0000000     0.0000000     0.0000000

 ptrans:     0.0000000     0.0000000     0.0000000

 rotmap:
 (   1->   1)  (   2->   2)

[...]

 irot  :  12
 isymop:   0  -1   0
          -1   0   0
           0   0   1

 gtrans:     0.0000000     0.0000000     0.0000000

 ptrans:     0.0000000     0.0000000     0.0000000

 rotmap:
 (   1->   1)  (   2->   2)

                                     Primitive cell

  volume of cell :     180.2673

  direct lattice vectors                    reciprocal lattice vectors
     3.606892539  0.000000000  0.000000000     0.277246962  0.160068608  0.000000000
    -1.803446269  3.123660567  0.000000000     0.000000000  0.320137217  0.000000000
     0.000000000  0.000000000 16.000000000     0.000000000  0.000000000  0.062500000

  length of vectors
     3.606892539  3.606892539 16.000000000     0.320137217  0.320137217  0.062500000

  position of ions in fractional coordinates (direct lattice)
     0.666666667  0.333333333  0.456343136
     0.333333333  0.666666667  0.543656864

  ion indices of the primitive-cell ions
   primitive index   ion index
                 1           1
                 2           2

 KPOINTS: kpoints

Automatic generation of k-mesh.
 Grid dimensions read from file:
 generate k-points for:   13   13    1

 Generating k-lattice:

  Cartesian coordinates                     Fractional coordinates (reciprocal lattice)
     0.021326689  0.012312970  0.000000000     0.076923077  0.000000000  0.000000000
     0.000000000  0.024625940  0.000000000     0.000000000  0.076923077  0.000000000
     0.000000000  0.000000000  0.062500000     0.000000000  0.000000000  1.000000000

  Length of vectors
     0.024625940  0.024625940  0.062500000

  Shift w.r.t. Gamma in fractional coordinates (k-lattice)
     0.000000000  0.000000000  0.000000000

 Subroutine IBZKPT returns following result:

 Found     21 irreducible k-points:

 Following reciprocal coordinates:
            Coordinates               Weight
  0.000000  0.000000  0.000000      1.000000
  0.076923  0.000000  0.000000      6.000000
  0.153846  0.000000  0.000000      6.000000
  0.230769 -0.000000  0.000000      6.000000
  0.307692  0.000000  0.000000      6.000000
  0.384615  0.000000  0.000000      6.000000
  0.461538 -0.000000  0.000000      6.000000
  0.076923  0.076923  0.000000      6.000000
  0.153846  0.076923  0.000000     12.000000
  0.230769  0.076923  0.000000     12.000000
  0.307692  0.076923  0.000000     12.000000
  0.384615  0.076923  0.000000     12.000000
  0.461538  0.076923  0.000000      6.000000
  0.153846  0.153846  0.000000      6.000000
  0.230769  0.153846  0.000000     12.000000
  0.307692  0.153846  0.000000     12.000000
  0.384615  0.153846  0.000000     12.000000
  0.230769  0.230769  0.000000      6.000000
  0.307692  0.230769  0.000000     12.000000
  0.384615  0.230769  0.000000      6.000000
  0.307692  0.307692  0.000000      6.000000

 Following cartesian coordinates:
            Coordinates               Weight
  0.000000  0.000000  0.000000      1.000000
  0.021327  0.012313  0.000000      6.000000
  0.042653  0.024626  0.000000      6.000000
  0.063980  0.036939  0.000000      6.000000
  0.085307  0.049252  0.000000      6.000000
  0.106633  0.061565  0.000000      6.000000
  0.127960  0.073878  0.000000      6.000000
  0.021327  0.036939  0.000000      6.000000
  0.042653  0.049252  0.000000     12.000000
  0.063980  0.061565  0.000000     12.000000
  0.085307  0.073878  0.000000     12.000000
  0.106633  0.086191  0.000000     12.000000
  0.127960  0.098504  0.000000      6.000000
  0.042653  0.073878  0.000000      6.000000
  0.063980  0.086191  0.000000     12.000000
  0.085307  0.098504  0.000000     12.000000
  0.106633  0.110817  0.000000     12.000000
  0.063980  0.110817  0.000000      6.000000
  0.085307  0.123130  0.000000     12.000000
  0.106633  0.135443  0.000000      6.000000
  0.085307  0.147756  0.000000      6.000000

 Subroutine IBZKPT_HF returns following result:

 Found    169 k-points in 1st BZ
 the following    169 k-points will be used (e.g. in the exchange kernel)
 Following reciprocal coordinates:   # in IRBZ
  0.000000  0.000000  0.000000    0.00591716   1 t-inv F
  0.076923  0.000000  0.000000    0.00591716   2 t-inv F
  0.153846  0.000000  0.000000    0.00591716   3 t-inv F
  0.230769 -0.000000  0.000000    0.00591716   4 t-inv F
  0.307692  0.000000  0.000000    0.00591716   5 t-inv F
  0.384615  0.000000  0.000000    0.00591716   6 t-inv F
  0.461538 -0.000000  0.000000    0.00591716   7 t-inv F
  0.076923  0.076923  0.000000    0.00591716   8 t-inv F
  0.153846  0.076923  0.000000    0.00591716   9 t-inv F
  0.230769  0.076923  0.000000    0.00591716  10 t-inv F
  0.307692  0.076923  0.000000    0.00591716  11 t-inv F
  0.384615  0.076923  0.000000    0.00591716  12 t-inv F
  0.461538  0.076923  0.000000    0.00591716  13 t-inv F
  0.153846  0.153846  0.000000    0.00591716  14 t-inv F
  0.230769  0.153846  0.000000    0.00591716  15 t-inv F
  0.307692  0.153846  0.000000    0.00591716  16 t-inv F
  0.384615  0.153846  0.000000    0.00591716  17 t-inv F
  0.230769  0.230769  0.000000    0.00591716  18 t-inv F
  0.307692  0.230769  0.000000    0.00591716  19 t-inv F
  0.384615  0.230769  0.000000    0.00591716  20 t-inv F
  0.307692  0.307692  0.000000    0.00591716  21 t-inv F
 -0.076923 -0.000000  0.000000    0.00591716   2 t-inv F
 -0.076923  0.076923  0.000000    0.00591716   2 t-inv F
  0.076923 -0.076923  0.000000    0.00591716   2 t-inv F
  0.000000 -0.076923  0.000000    0.00591716   2 t-inv F
 -0.000000  0.076923  0.000000    0.00591716   2 t-inv F
 -0.153846 -0.000000  0.000000    0.00591716   3 t-inv F
 -0.153846  0.153846  0.000000    0.00591716   3 t-inv F
  0.153846 -0.153846  0.000000    0.00591716   3 t-inv F
  0.000000 -0.153846  0.000000    0.00591716   3 t-inv F
 -0.000000  0.153846  0.000000    0.00591716   3 t-inv F
 -0.230769  0.000000  0.000000    0.00591716   4 t-inv F
 -0.230769  0.230769  0.000000    0.00591716   4 t-inv F
  0.230769 -0.230769  0.000000    0.00591716   4 t-inv F
 -0.000000 -0.230769  0.000000    0.00591716   4 t-inv F
  0.000000  0.230769  0.000000    0.00591716   4 t-inv F
 -0.307692 -0.000000  0.000000    0.00591716   5 t-inv F
 -0.307692  0.307692  0.000000    0.00591716   5 t-inv F
  0.307692 -0.307692  0.000000    0.00591716   5 t-inv F
  0.000000 -0.307692  0.000000    0.00591716   5 t-inv F
 -0.000000  0.307692  0.000000    0.00591716   5 t-inv F
 -0.384615  0.000000  0.000000    0.00591716   6 t-inv F
 -0.384615  0.384615  0.000000    0.00591716   6 t-inv F
  0.384615 -0.384615  0.000000    0.00591716   6 t-inv F
  0.000000 -0.384615  0.000000    0.00591716   6 t-inv F
  0.000000  0.384615  0.000000    0.00591716   6 t-inv F
 -0.461538  0.000000  0.000000    0.00591716   7 t-inv F
[...]
      1     -15.9423      2.00000
      2      -9.0680      2.00000
      3      -2.1125      2.00000
      4       1.2121      2.00000
      5       1.8766      0.00000
      6       2.3376      0.00000
      7       3.0862      0.00000
      8       4.3129      0.00000
      9       5.1070      0.00000
     10       5.5659      0.00000
     11       7.6041      0.00000
     12       8.5057      0.00000
     13       9.2786      0.00000
     14      11.1717      0.00000
     15      12.7119      0.00000
     16      14.4496      0.00000

[...]

 soft charge-density along one line, spin component           1
         0         1         2         3         4         5         6         7         8         9
 total charge-density along one line

[...]

 eigenvalue-minimisations  :   944
 total energy-change (2. order) :-0.3094891E+02  (-0.3007956E+02)
 number of electron      10.0000000 magnetization
 augmentation part       10.0000000 magnetization

[...]

 Broyden mixing:
  rms(total) = 0.19305E+00    rms(broyden)= 0.19293E+00
  rms(prec ) = 0.21694E+00
  weight for this iteration     100.00

[...]

 eigenvalues of (default mixing * dielectric matrix)
  average eigenvalue GAMMA=   9.0731
  9.0731

[...]

 eigenvalue-minimisations  :   800
 total energy-change (2. order) :-0.6462298E-05  (-0.7432693E-05)
 number of electron       9.9999999 magnetization
 augmentation part       -1.6262723 magnetization

[...]

--------------------------------------- Iteration      1(  19)  ---------------------------------------

 eigenvalue-minimisations  :   912
 total energy-change (2. order) : 0.2489757E-06  (-0.4623189E-06)
 number of electron       9.9999999 magnetization
 augmentation part       -1.6262723 magnetization

 Free energy of the ion-electron system (eV)
  alpha Z        PSCENC =         5.26383816
  Ewald energy   TEWEN  =       378.22030483
  -Hartree energ DENC   =      -670.07695514
  -exchange      EXHF   =         0.00000000
  -V(xc)+E(xc)   XCENC  =       -23.49291658
  PAW double counting   =       332.33092744     -289.60331618
  entropy T*S    EENTRO =        -0.00000000
  eigenvalues    EBANDS =       -82.34739922
  atomic energy  EATOM  =       340.36393574
  Solvation  Ediel_sol  =         0.00000000
  free energy    TOTEN  =        -9.34158095 eV

  energy without entropy =       -9.34158095  energy(sigma->0) =       -9.34158095

 average (electrostatic) potential at core
  the test charge radii are     1.0621
  (the norm of the test charge is              1.0000)
       1 -57.2654       2 -57.2654

 E-fermi :  -2.9732     XC(G=0):  -3.2503     alpha+bet : -2.4472

 Fermi energy:        -2.9731989388

[...]

 soft charge-density along one line, spin component           1
         0         1         2         3         4         5         6         7         8         9
 total charge-density along one line

------------------------ aborting loop because EDIFF is reached ----------------------------------------

 total charge

# of ion       s       p       d       tot
    1        1.291   1.352   0.041   2.684
    2        1.291   1.352   0.041   2.684
tot          2.582   2.703   0.082   5.368

  FORCE on cell =-STRESS in cart. coord.  units (eV):
  Direction    XX          YY          ZZ          XY          YZ          ZX
  Alpha Z     5.26384     5.26384     5.26384
  Ewald     617.16201   617.16201  -856.10369    -0.00000     0.00000    -0.00000
  Hartree   656.17882   656.17882  -642.27209    -0.00000    -0.00000    -0.00000
  E(xc)     -37.00430   -37.00429   -37.42747     0.00000     0.00000    -0.00000
  Local   -1402.24471 -1402.24477  1363.48008    -0.00005     0.00000    -0.00000
  n-local    73.95178    74.57008    75.01805    -0.49365     0.23072    -0.95614
  augment    -2.78672    -2.78665    -3.18863     0.00006    -0.00000     0.00000
  Kinetic    87.55951    90.70884    95.18352     1.37402    -0.34915    -1.89787
  Fock        0.00000     0.00000     0.00000     0.00000     0.00000     0.00000
  Total      -0.03594    -0.03594    -0.04639     0.00000     0.00000    -0.00000
  in kB      -0.31943    -0.31943    -0.41227     0.00000     0.00000    -0.00000

 VOLUME and BASIS-vectors are now :
  energy-cutoff  :      234.79
  volume of cell :      180.27
      direct lattice vectors                 reciprocal lattice vectors
     3.606892539  0.000000000  0.000000000     0.277246962  0.160068608  0.000000000
    -1.803446269  3.123660567  0.000000000     0.000000000  0.320137217  0.000000000
     0.000000000  0.000000000 16.000000000     0.000000000  0.000000000  0.062500000

  length of vectors
     3.606892539  3.606892539 16.000000000     0.320137217  0.320137217  0.062500000

 FORCES acting on ions
    electron-ion (+dipol)            ewald-force                    non-local-force                 convergence-correction
   0.745E-06 -.177E-06 0.130E+03   0.264E-11 -.149E-11 -.136E+03   0.139E-16 -.416E-16 0.585E+01   0.128E-06 -.737E-07 -.262E-02
   -.745E-06 0.177E-06 -.130E+03   -.264E-11 0.148E-11 0.136E+03   -.416E-16 0.139E-16 -.585E+01   -.128E-06 0.737E-07 0.262E-02
   0.476E-13 -.570E-13 -.180E-11   -.111E-14 -.253E-14 0.000E+00   -.278E-16 -.278E-16 0.000E+00   -.353E-14 -.336E-14 -.543E-13

 POSITION                                       TOTAL-FORCE (eV/Angst)
      1.80345      1.04122      7.30149        -0.000000     -0.000000      0.001906
      0.00000      2.08244      8.69851         0.000000      0.000000     -0.001906
    total drift:                                0.000000     -0.000000     -0.000000

  FREE ENERGIE OF THE ION-ELECTRON SYSTEM (eV)
  free  energy   TOTEN  =        -9.34158095 eV

  energy  without entropy=       -9.34158095  energy(sigma->0) =       -9.34158095

 Found     2 degrees of freedom:

     directions for atom     1:  z
 Linear response reoptimize wavefunctions
 Linear response:
   Degrees of freedom DOF   =            2
 Linear response progress:
  Degree of freedom:   1/  2
  LATTYP: Found a hexagonal cell.
 ALAT       =     3.6068925390
 C/A-ratio  =     4.4359513978

[...]

The dynamic configuration has the point symmetry C_1 .

[...]

----------------------------------------- Iteration    4(   1)  ---------------------------------------

 Free energy of the ion-electron system (eV)
  -Hartree energ DENC   =        -0.01613171
  -V(xc)+E(xc)   XCENC  =         0.00140229
  PAW double counting   =         0.00000000        0.00000000
  entropy T*S    EENTRO =         0.00000000
  eigenvalues    EBANDS =        -0.02229427
  free energy    TOTEN  =        -0.03702369 eV

  energy without entropy =       -0.03702369

[...]

 INTERNAL STRAIN TENSOR  FOR ION    1  DIRECTION 1   (eV/Angst):
    -0.00762  3.02359 10.44908
     3.02358  0.00759  0.03363
    10.21372 -0.07380 -0.00006

 POSITION                   FORCE-CONSTANT FOR ION    1 DIRECTION 1 (eV/Angst/Angst)
      1.80345      1.04122      7.30149        -7.690888     -0.000013      0.000033
      0.00000      2.08244      8.69851         7.690888      0.000013     -0.000033
    total drift:                                0.000000      0.000000      0.000000

 Linear response progress:
  Degree of freedom:   2/  2
  LATTYP: Found a hexagonal cell.
 ALAT       =     3.6068925390
 C/A-ratio  =     4.4359513978

[...]

The dynamic configuration has the point symmetry C_3v.

[...]

----------------------------------------- Iteration    6(  11)  ---------------------------------------

 Broyden mixing:
  rms(total) = 0.53189E-03    rms(broyden)= 0.53181E-03
  rms(prec ) = 0.58563E-03
  weight for this iteration     100.00

 eigenvalues of (default mixing * dielectric matrix)
  average eigenvalue GAMMA=   4.1978
 10.2858  9.4092  7.3598  4.9629  1.5071  1.2149  0.9745  1.0330  1.0330

 Free energy of the ion-electron system (eV)
  -Hartree energ DENC   =        -0.03906922
  -V(xc)+E(xc)   XCENC  =         0.00145573
  PAW double counting   =         0.00298354       -0.00298886
  entropy T*S    EENTRO =        -0.00000000
  eigenvalues    EBANDS =        -0.02312783
  free energy    TOTEN  =        -0.06074664 eV

  energy without entropy =       -0.06074664

[...]

 k-point  21 :       0.3077    0.3077    0.0000
  band No.  band energies     occupation
      1      -3.8683      0.00000
      2      -3.4675      0.00000
      3      -4.6233      0.00000
      4      -0.6102      0.00000
      5      -0.2465      0.00000
      6       1.7838      0.00000
      7       2.8092      0.00000
      8       2.5033      0.00000
      9      -0.1715      0.00000
     10      -2.0034      0.00000
     11      -2.7274      0.00000
     12      -0.7634      0.00000
     13       0.3557      0.00000
     14      -0.3927      0.00000
     15       0.6099      0.00000
     16      -1.0601      0.00000

------------------------ aborting loop because EDIFF is reached ----------------------------------------

 INTERNAL STRAIN TENSOR  FOR ION    1  DIRECTION 3   (eV/Angst):
     6.27837 -0.00000 -0.00000
    -0.00000  6.27837 -0.00000
    -0.00000  0.00000 17.81949

 POSITION                   FORCE-CONSTANT FOR ION    1 DIRECTION 3 (eV/Angst/Angst)
      1.80345      1.04122      7.30149         0.000000     -0.000000    -12.806906
      0.00000      2.08244      8.69851        -0.000000      0.000000     12.806906
    total drift:                                0.000000      0.000000      0.000000

  LATTYP: Found a hexagonal cell.
 ALAT       =     3.6068925390
 C/A-ratio  =     4.4359513978

  Lattice vectors:

 A1 = (   3.6068925390,   0.0000000000,   0.0000000000)
 A2 = (  -1.8034462695,   3.1236605675,   0.0000000000)
 A3 = (   0.0000000000,   0.0000000000,  16.0000000000)

Analysis of symmetry for initial positions (statically):
 Subroutine PRICEL returns:
 Original cell was already a primitive cell.

[...]

The static configuration has the point symmetry D_3d.

Analysis of symmetry for dynamics (positions and initial velocities):
 Subroutine PRICEL returns:
 Original cell was already a primitive cell.

 Routine SETGRP: Setting up the symmetry group for a
 hexagonal supercell.

 Subroutine GETGRP returns: Found 12 space group operations
 (whereof 12 operations were pure point group operations)
 out of a pool of 24 trial point group operations.

The dynamic configuration has the point symmetry D_3d.

 Subroutine INISYM returns: Found 12 space group operations
 (whereof 12 operations are pure point group operations),
 and found     1 'primitive' translations

 KPOINTS: kpoints

Automatic generation of k-mesh.
 Grid dimensions read from file:
 generate k-points for:   13   13    1

 Generating k-lattice:

  Cartesian coordinates                     Fractional coordinates (reciprocal lattice)
     0.021326689  0.012312970  0.000000000     0.076923077  0.000000000  0.000000000
     0.000000000  0.024625940  0.000000000     0.000000000  0.076923077  0.000000000
     0.000000000  0.000000000  0.062500000     0.000000000  0.000000000  1.000000000

  Length of vectors
     0.024625940  0.024625940  0.062500000

  Shift w.r.t. Gamma in fractional coordinates (k-lattice)
     0.000000000  0.000000000  0.000000000

 Subroutine IBZKPT returns following result:

 Found     21 irreducible k-points:

 Following reciprocal coordinates:
            Coordinates               Weight
  0.000000  0.000000  0.000000      1.000000
  0.076923  0.000000  0.000000      6.000000
  0.153846  0.000000  0.000000      6.000000
  0.230769 -0.000000  0.000000      6.000000
  0.307692  0.000000  0.000000      6.000000
  0.384615  0.000000  0.000000      6.000000
  0.461538 -0.000000  0.000000      6.000000
  0.076923  0.076923  0.000000      6.000000
  0.153846  0.076923  0.000000     12.000000
  0.230769  0.076923  0.000000     12.000000
  0.307692  0.076923  0.000000     12.000000
  0.384615  0.076923  0.000000     12.000000
  0.461538  0.076923  0.000000      6.000000
  0.153846  0.153846  0.000000      6.000000
  0.230769  0.153846  0.000000     12.000000
  0.307692  0.153846  0.000000     12.000000
  0.384615  0.153846  0.000000     12.000000
  0.230769  0.230769  0.000000      6.000000
  0.307692  0.230769  0.000000     12.000000
  0.384615  0.230769  0.000000      6.000000
  0.307692  0.307692  0.000000      6.000000

 Following cartesian coordinates:
            Coordinates               Weight
  0.000000  0.000000  0.000000      1.000000
  0.021327  0.012313  0.000000      6.000000
  0.042653  0.024626  0.000000      6.000000
  0.063980  0.036939  0.000000      6.000000
  0.085307  0.049252  0.000000      6.000000
  0.106633  0.061565  0.000000      6.000000
  0.127960  0.073878  0.000000      6.000000
  0.021327  0.036939  0.000000      6.000000
  0.042653  0.049252  0.000000     12.000000
  0.063980  0.061565  0.000000     12.000000
  0.085307  0.073878  0.000000     12.000000
  0.106633  0.086191  0.000000     12.000000
  0.127960  0.098504  0.000000      6.000000
  0.042653  0.073878  0.000000      6.000000
  0.063980  0.086191  0.000000     12.000000
  0.085307  0.098504  0.000000     12.000000
  0.106633  0.110817  0.000000     12.000000
  0.063980  0.110817  0.000000      6.000000
  0.085307  0.123130  0.000000     12.000000
  0.106633  0.135443  0.000000      6.000000
  0.085307  0.147756  0.000000      6.000000

 INTERNAL STRAIN TENSOR FOR ION    1 for displacements in x,y,z  (eV/Angst):
          X           Y           Z          XY          YZ          ZX
  x     0.00000    -0.00000    -0.00000     3.02359     0.00000    10.44908
  y     3.02359    -3.02359    -0.00000    -0.00000    10.21372     0.00000
  z     6.27837     6.27837    17.81949     0.00000    -0.00000    -0.00000

 INTERNAL STRAIN TENSOR FOR ION    2 for displacements in x,y,z  (eV/Angst):
          X           Y           Z          XY          YZ          ZX
  x    -0.00000     0.00000     0.00000    -3.02359    -0.00000   -10.44908
  y    -3.02359     3.02359     0.00000     0.00000   -10.21372    -0.00000
  z    -6.27837    -6.27837   -17.81949    -0.00000     0.00000     0.00000

 SECOND DERIVATIVES (NOT SYMMETRIZED)
               1X          1Y          1Z          2X          2Y          2Z
  1X    -7.690888   -0.000000    0.000000    7.690888    0.000000   -0.000000
  1Y    -0.000000   -7.690888    0.000000    0.000000    7.690888    0.000000
  1Z    -0.000000    0.000000  -12.806906    0.000000    0.000000   12.806906
  2X     7.690888    0.000000   -0.000000   -7.690888   -0.000000    0.000000
  2Y     0.000000    7.690888    0.000000   -0.000000   -7.690888    0.000000
  2Z     0.000000    0.000000   12.806906   -0.000000    0.000000  -12.806906

 Eigenvectors and eigenvalues of the dynamical matrix

   1 f  =    9.140778 THz    57.433202 2PiTHz  304.903534 cm-1    37.803203 meV
             X         Y         Z           dx          dy          dz
      1.803446  1.041220  7.301490     0.000000    0.000000   -0.707107
      0.000000  2.082440  8.698510    -0.000000    0.000000    0.707107

[...]

   6 f/i=    0.000000 THz     0.000001 2PiTHz    0.000004 cm-1     0.000000 meV
             X         Y         Z           dx          dy          dz
      1.803446  1.041220  7.301490     0.705164   -0.052377   -0.000000
      0.000000  2.082440  8.698510     0.705164   -0.052377    0.000000

 Eigenvectors after division by SQRT(mass)

 Eigenvectors and eigenvalues of the dynamical matrix

[...]

   5 f  =    0.000000 THz     0.000000 2PiTHz    0.000000 cm-1     0.000000 meV
             X         Y         Z           dx          dy          dz
      1.803446  1.041220  7.301490    -0.000000    0.000000    0.081692
      0.000000  2.082440  8.698510     0.000000    0.000000    0.081692

   6 f/i=    0.000000 THz     0.000001 2PiTHz    0.000004 cm-1     0.000000 meV
             X         Y         Z           dx          dy          dz
      1.803446  1.041220  7.301490     0.081468   -0.006051   -0.000000
      0.000000  2.082440  8.698510     0.081468   -0.006051    0.000000

 ELASTIC MODULI CONTR FROM IONIC RELAXATION (kBar)
 Direction    XX          YY          ZZ          XY          YZ          ZX
 XX         -37.9202    -16.7906    -77.6411     -0.0000    -35.6881     -0.0000
 YY         -16.7906    -37.9202    -77.6411     -0.0000     35.6881      0.0000
 ZZ         -77.6411    -77.6411   -220.3637     -0.0000      0.0000      0.0000
 XY          -0.0000     -0.0000     -0.0000    -10.5648      0.0000    -36.5105
 YZ         -35.6881     35.6881      0.0000      0.0000   -120.5548     -0.0000
 ZX          -0.0000      0.0000      0.0000    -36.5105     -0.0000   -126.1750

 total charge

# of ion       s       p       d       tot
    1        1.291   1.352   0.041   2.684
    2        1.291   1.352   0.041   2.684
tot          2.582   2.703   0.082   5.368