 vasp.6.4.2 20Jul23 (build Nov 14 2023 12:59:38) complex

 executed on             LinuxIFC date 2023.12.29  15:51:12

 INCAR:
   ENCUT = 234.789750
   ALGO = Normal
   NELM = 200
   NELMIN = 6
   NELMDL = -12
   EDIFF = 1.0E-6
   AMIX = 0.1
   BMIX = 0.0001
   PREC = Accurate
   IVDW = 0
   ISPIN = 1
   ADDGRID = .TRUE.
   LASPH = .TRUE.
   LREAL = .FALSE.
   LEPSILON = .TRUE.
   ISMEAR = 0
   SIGMA = 0.01
   LORBIT = 10
   NEDOS = 6001
   NWRITE = 3
   LWAVE = .FALSE.
   LCHARG = .FALSE.
   ICHARG = 2
   LELF = .FALSE.
   LVTOT = .FALSE.
   LPLANE = .TRUE.

 POTCAR:    PAW_PBE As_GW 20Mar2012
|           W    W    AA    RRRRR   N    N  II  N    N   GGGG   !!!           |
|           W    W   A  A   R    R  NN   N  II  NN   N  G    G  !!!           |
|           W    W  A    A  R    R  N N  N  II  N N  N  G       !!!           |
|           W WW W  AAAAAA  RRRRR   N  N N  II  N  N N  G  GGG   !            |
|           WW  WW  A    A  R   R   N   NN  II  N   NN  G    G                |
|           W    W  A    A  R    R  N    N  II  N    N   GGGG   !!!           |
|     For optimal performance we recommend to set                             |
|       NCORE = 2 up to number-of-cores-per-socket                            |
|     This setting can greatly improve the performance of VASP for DFT.       |
|     The default, NCORE=1 might be grossly inefficient on modern             |
|     multi-core architectures or massively parallel machines. Do your        |
|     Unfortunately you need to use the default for GW and RPA                |
|     calculations (for HF NCORE is supported but not extensively tested      |
|     yet).                                                                   |

   TITEL  = PAW_PBE As_GW 20Mar2012
   POMASS =   74.922; ZVAL   =    5.000    mass and valenz
   ENMAX  =  208.702; ENMIN  =  156.526 eV

  PAW_PBE As_GW 20Mar2012               :

 POSCAR: OUTCAR.0003.-1.out 1.0e-02
  positions in cartesian coordinates
 exchange correlation table for  LEXCH =        8
   RHO(1)=    0.500       N(1)  =     2000
   RHO(2)=  100.500       N(2)  =     4000

 ion  position               nearest neighbor table
   1  0.665  0.333  0.456-   2 2.50   2 2.51   2 2.52
   2  0.335  0.667  0.544-   1 2.50   1 2.51   1 2.52

  LATTYP: Found a hexagonal cell.
 ALAT       =     3.6068925390
 C/A-ratio  =     4.4359513978

  Lattice vectors:

 A1 = (   3.6068925390,   0.0000000000,   0.0000000000)
 A2 = (  -1.8034462695,   3.1236605675,   0.0000000000)
 A3 = (   0.0000000000,   0.0000000000,  16.0000000000)

Analysis of symmetry for initial positions (statically):
 Subroutine PRICEL returns:
 Original cell was already a primitive cell.

 Routine SETGRP: Setting up the symmetry group for a
 hexagonal supercell.

 Subroutine GETGRP returns: Found  2 space group operations
 (whereof  2 operations were pure point group operations)
 out of a pool of 24 trial point group operations.

The static configuration has the point symmetry S_2 .

Analysis of symmetry for dynamics (positions and initial velocities):
 Subroutine PRICEL returns:
 Original cell was already a primitive cell.

[...]

The dynamic configuration has the point symmetry S_2 .

 Subroutine INISYM returns: Found  2 space group operations
 (whereof  2 operations are pure point group operations),
 and found     1 'primitive' translations

 irot  :   1
 isymop:   1   0   0
           0   1   0
           0   0   1

 gtrans:     0.0000000     0.0000000     0.0000000

 ptrans:     0.0000000     0.0000000     0.0000000

 rotmap:
 (   1->   1)  (   2->   2)

 irot  :   2
 isymop:  -1   0   0
           0  -1   0
           0   0  -1

 gtrans:     0.0000000     0.0000000     0.0000000

 ptrans:     0.0000000     0.0000000     0.0000000

 rotmap:
 (   1->   2)  (   2->   1)

                                     Primitive cell

  volume of cell :     180.2673

  direct lattice vectors                    reciprocal lattice vectors
     3.606892539  0.000000000  0.000000000     0.277246962  0.160068608  0.000000000
    -1.803446269  3.123660567  0.000000000     0.000000000  0.320137217  0.000000000
     0.000000000  0.000000000 16.000000000     0.000000000  0.000000000  0.062500000

  length of vectors
     3.606892539  3.606892539 16.000000000     0.320137217  0.320137217  0.062500000

  position of ions in fractional coordinates (direct lattice)
     0.664706235  0.333333333  0.456343136
     0.335293765  0.666666667  0.543656864

  ion indices of the primitive-cell ions
   primitive index   ion index
                 1           1
                 2           2

 KPOINTS: kpoints

Automatic generation of k-mesh.
 Grid dimensions read from file:
 generate k-points for:   13   13    1

 Generating k-lattice:

  Cartesian coordinates                     Fractional coordinates (reciprocal lattice)
     0.021326689  0.012312970  0.000000000     0.076923077  0.000000000  0.000000000
     0.000000000  0.024625940  0.000000000     0.000000000  0.076923077  0.000000000
     0.000000000  0.000000000  0.062500000     0.000000000  0.000000000  1.000000000

  Length of vectors
     0.024625940  0.024625940  0.062500000

  Shift w.r.t. Gamma in fractional coordinates (k-lattice)
     0.000000000  0.000000000  0.000000000

 Subroutine IBZKPT returns following result:

 Found     85 irreducible k-points:

 Following reciprocal coordinates:
            Coordinates               Weight
  0.000000  0.000000  0.000000      1.000000
  0.076923  0.000000  0.000000      2.000000
  0.000000  0.076923  0.000000      2.000000
 -0.076923  0.076923  0.000000      2.000000
  0.153846  0.000000  0.000000      2.000000
  0.000000  0.153846  0.000000      2.000000
 -0.153846  0.153846  0.000000      2.000000
  0.230769 -0.000000  0.000000      2.000000
  0.000000  0.230769  0.000000      2.000000
 -0.230769  0.230769  0.000000      2.000000
  0.307692  0.000000  0.000000      2.000000
  0.000000  0.307692  0.000000      2.000000
 -0.307692  0.307692  0.000000      2.000000
  0.384615  0.000000  0.000000      2.000000
  0.000000  0.384615  0.000000      2.000000
 -0.384615  0.384615  0.000000      2.000000
  0.461538 -0.000000  0.000000      2.000000
  0.000000  0.461538  0.000000      2.000000
 -0.461538  0.461538  0.000000      2.000000
  0.076923  0.076923  0.000000      2.000000
 -0.076923  0.153846  0.000000      2.000000
 -0.153846  0.076923  0.000000      2.000000
  0.153846  0.076923  0.000000      2.000000
 -0.076923  0.230769  0.000000      2.000000
 -0.230769  0.153846  0.000000      2.000000
 -0.153846  0.230769  0.000000      2.000000
  0.076923  0.153846  0.000000      2.000000
  0.230769 -0.076923  0.000000      2.000000
  0.230769  0.076923  0.000000      2.000000
 -0.076923  0.307692  0.000000      2.000000
 -0.307692  0.230769  0.000000      2.000000
 -0.230769  0.307692  0.000000      2.000000
  0.076923  0.230769  0.000000      2.000000
  0.307692 -0.076923  0.000000      2.000000
  0.307692  0.076923  0.000000      2.000000
 -0.076923  0.384615  0.000000      2.000000
 -0.384615  0.307692  0.000000      2.000000
 -0.307692  0.384615  0.000000      2.000000
  0.076923  0.307692  0.000000      2.000000
  0.384615 -0.076923  0.000000      2.000000
  0.384615  0.076923  0.000000      2.000000
 -0.076923  0.461538  0.000000      2.000000
 -0.461538  0.384615  0.000000      2.000000
 -0.384615  0.461538  0.000000      2.000000
  0.076923  0.384615  0.000000      2.000000
  0.461538 -0.076923  0.000000      2.000000
  0.461538  0.076923  0.000000      2.000000
 -0.076923 -0.461538  0.000000      2.000000
  0.461538  0.461538  0.000000      2.000000
  0.153846  0.153846  0.000000      2.000000
 -0.153846  0.307692  0.000000      2.000000
 -0.307692  0.153846  0.000000      2.000000
  0.230769  0.153846  0.000000      2.000000
 -0.153846  0.384615  0.000000      2.000000
 -0.384615  0.230769  0.000000      2.000000
 -0.230769  0.384615  0.000000      2.000000
  0.153846  0.230769  0.000000      2.000000
  0.384615 -0.153846  0.000000      2.000000
  0.307692  0.153846  0.000000      2.000000
 -0.153846  0.461538  0.000000      2.000000
[...]
  0.230769  0.230769  0.000000      2.000000
 -0.230769  0.461538  0.000000      2.000000
 -0.461538  0.230769  0.000000      2.000000
  0.307692  0.230769  0.000000      2.000000
 -0.230769 -0.461538  0.000000      2.000000
  0.461538  0.307692  0.000000      2.000000
 -0.307692 -0.461538  0.000000      2.000000
  0.230769  0.307692  0.000000      2.000000
 -0.461538 -0.230769  0.000000      2.000000
  0.384615  0.230769  0.000000      2.000000
 -0.230769 -0.384615  0.000000      2.000000
  0.384615  0.384615  0.000000      2.000000
  0.307692  0.307692  0.000000      2.000000
 -0.307692 -0.384615  0.000000      2.000000
  0.384615  0.307692  0.000000      2.000000

 Following cartesian coordinates:
            Coordinates               Weight
  0.000000  0.000000  0.000000      1.000000
  0.021327  0.012313  0.000000      2.000000
  0.000000  0.024626  0.000000      2.000000
 -0.021327  0.012313  0.000000      2.000000
  0.042653  0.024626  0.000000      2.000000
  0.000000  0.049252  0.000000      2.000000
 -0.042653  0.024626  0.000000      2.000000
  0.063980  0.036939  0.000000      2.000000
  0.000000  0.073878  0.000000      2.000000
 -0.063980  0.036939  0.000000      2.000000
  0.085307  0.049252  0.000000      2.000000
  0.000000  0.098504  0.000000      2.000000
 -0.085307  0.049252  0.000000      2.000000
  0.106633  0.061565  0.000000      2.000000
  0.000000  0.123130  0.000000      2.000000
 -0.106633  0.061565  0.000000      2.000000
  0.127960  0.073878  0.000000      2.000000
  0.000000  0.147756  0.000000      2.000000
 -0.127960  0.073878  0.000000      2.000000
  0.021327  0.036939  0.000000      2.000000
 -0.021327  0.036939  0.000000      2.000000
 -0.042653  0.000000  0.000000      2.000000
  0.042653  0.049252  0.000000      2.000000
 -0.021327  0.061565  0.000000      2.000000
 -0.063980  0.012313  0.000000      2.000000
 -0.042653  0.049252  0.000000      2.000000
  0.021327  0.061565  0.000000      2.000000
  0.063980  0.012313  0.000000      2.000000
  0.063980  0.061565  0.000000      2.000000
 -0.021327  0.086191  0.000000      2.000000
 -0.085307  0.024626  0.000000      2.000000
 -0.063980  0.061565  0.000000      2.000000
  0.021327  0.086191  0.000000      2.000000
  0.085307  0.024626  0.000000      2.000000
  0.085307  0.073878  0.000000      2.000000
 -0.021327  0.110817  0.000000      2.000000
 -0.106633  0.036939  0.000000      2.000000
 -0.085307  0.073878  0.000000      2.000000
  0.021327  0.110817  0.000000      2.000000
  0.106633  0.036939  0.000000      2.000000
  0.106633  0.086191  0.000000      2.000000
 -0.021327  0.135443  0.000000      2.000000
 -0.127960  0.049252  0.000000      2.000000
 -0.106633  0.086191  0.000000      2.000000
  0.021327  0.135443  0.000000      2.000000
  0.127960  0.049252  0.000000      2.000000
  0.127960  0.098504  0.000000      2.000000
 -0.021327 -0.160069  0.000000      2.000000
  0.127960  0.221633  0.000000      2.000000
  0.042653  0.073878  0.000000      2.000000
 -0.042653  0.073878  0.000000      2.000000
[...]
  in kB      -0.30521    -0.31192    -0.39041    -0.40529     0.01446    -1.34585

 VOLUME and BASIS-vectors are now :
  energy-cutoff  :      234.79
  volume of cell :      180.27
      direct lattice vectors                 reciprocal lattice vectors
     3.606892539  0.000000000  0.000000000     0.277246962  0.160068608  0.000000000
    -1.803446269  3.123660567  0.000000000     0.000000000  0.320137217  0.000000000
     0.000000000  0.000000000 16.000000000     0.000000000  0.000000000  0.062500000

  length of vectors
     3.606892539  3.606892539 16.000000000     0.320137217  0.320137217  0.062500000

 FORCES acting on ions
    electron-ion (+dipol)            ewald-force                    non-local-force                 convergence-correction
   -.298E+00 0.510E-02 0.130E+03   0.364E+00 -.524E-02 -.136E+03   0.422E-01 -.103E-02 0.585E+01   -.309E-04 -.127E-05 -.262E-02
   0.298E+00 -.510E-02 -.130E+03   -.364E+00 0.524E-02 0.136E+03   -.422E-01 0.103E-02 -.585E+01   0.309E-04 0.127E-05 0.262E-02
   -.370E-08 -.745E-08 -.128E-10   -.111E-14 -.253E-14 0.000E+00   0.000E+00 0.000E+00 0.000E+00   0.355E-12 0.710E-12 -.420E-13

 POSITION                                       TOTAL-FORCE (eV/Angst)
      1.79638      1.04122      7.30149         0.108623     -0.001170      0.000194
      0.00707      2.08244      8.69851        -0.108623      0.001170     -0.000194
    total drift:                               -0.000000     -0.000000     -0.000000

  FREE ENERGIE OF THE ION-ELECTRON SYSTEM (eV)
  free  energy   TOTEN  =        -9.34081415 eV

  energy  without entropy=       -9.34081415  energy(sigma->0) =       -9.34081415

 Linear response reoptimize wavefunctions
 Linear response G [H, r] |phi>, progress :
  Direction:   1

----------------------------------------- Iteration    1(   1)  ---------------------------------------

  free energy    TOTEN  =       -43.89410974 eV

[...]

 Linear response G [H, r] |phi>, progress :
  Direction:   2

[...]

 Linear response G [H, r] |phi>, progress :
  Direction:   3

[...]

  free energy    TOTEN  =       -40.63922337 eV

[...]

 Linear response to external field (no local field effect), progress :
  Direction:   1
  LATTYP: Found a hexagonal cell.
 ALAT       =     3.6068925390
 C/A-ratio  =     4.4359513978

[...]

 Free energy of the ion-electron system (eV)
  -Hartree energ DENC   =         0.00000000
  -V(xc)+E(xc)   XCENC  =         0.00000000
  PAW double counting   =         0.00000000        0.00000000
  entropy T*S    EENTRO =         0.00000000
  eigenvalues    EBANDS =        -1.96613474
  free energy    TOTEN  =        -1.96613474 eV

  energy without entropy =       -1.96613474

[...]

 change of polarisation eV/A/(eV/A) component  1 :     4.052     0.038     0.024
 dielectric tensor                  component  1 :     5.068     0.038     0.024

[...]

 Linear response to external field (no local field effect), progress :
  Direction:   3
  LATTYP: Found a hexagonal cell.
 ALAT       =     3.6068925390
 C/A-ratio  =     4.4359513978

[...]

 HEAD OF MICROSCOPIC STATIC DIELECTRIC TENSOR (INDEPENDENT PARTICLE, excluding Hartree and local field effects)
           5.067901     0.037968     0.024233
           0.037968     5.065926    -0.000002
           0.024233    -0.000002     2.624030

 Linear response to external field, progress :
  Direction:   1
  LATTYP: Found a hexagonal cell.
 ALAT       =     3.6068925390
 C/A-ratio  =     4.4359513978

[...]

 PIEZOELECTRIC TENSOR FIELD DIRECTION 1  (e Angst)
    -0.00010  0.00175  0.00098           ( -0.00000 -0.00000  0.00003)
     0.00175 -0.00006 -0.00011           ( -0.00000 -0.00000 -0.00000)
     0.00098 -0.00011  0.00000           (  0.00003 -0.00000  0.00000)

 PIEZOELECTRIC TENSOR FIELD DIRECTION 1  (C/m^2)
    -0.00001  0.00016  0.00009
     0.00016 -0.00001 -0.00001
     0.00009 -0.00001  0.00000

      POSITION         DIRECTION 1           BORN EFFECTIVE CHARGE    (rigid.aug.   ionic)
      1.79638      1.04122      7.30149    -0.01306 -0.00053  0.00005 (  0.81316  5.00000)
      0.00707      2.08244      8.69851    -0.01366 -0.00055  0.00008 (  0.81316  5.00000)
    total drift (improves with k-points):  -0.02672 -0.00108  0.00013

[...]

 Linear response to external field, progress :
  Direction:   3
  LATTYP: Found a hexagonal cell.
 ALAT       =     3.6068925390
 C/A-ratio  =     4.4359513978

[...]

----------------------------------------- Iteration    3(  13)  ---------------------------------------

 Broyden mixing:
  rms(total) = 0.63254E-05    rms(broyden)= 0.63247E-05
  rms(prec ) = 0.73510E-05
  weight for this iteration     100.00

 eigenvalues of (default mixing * dielectric matrix)
  average eigenvalue GAMMA=   4.2829
 10.3817  9.9502  7.8542  7.0675  5.3676  1.5091  1.0312  1.0032  1.0032  0.9718
  0.9718

 Free energy of the ion-electron system (eV)
  -Hartree energ DENC   =        -0.12338668
  -V(xc)+E(xc)   XCENC  =         0.00448622
  PAW double counting   =         0.01371357       -0.01363381
  entropy T*S    EENTRO =         0.00000000
  eigenvalues    EBANDS =        -0.05825825
  free energy    TOTEN  =        -0.17707895 eV

  energy without entropy =       -0.17707895

------------------------ aborting loop because EDIFF is reached ----------------------------------------

 change of polarisation eV/A/(eV/A) component  3 :     0.002    -0.000     0.333
 dielectric tensor                  component  3 :     0.002    -0.000     1.334

 PIEZOELECTRIC TENSOR FIELD DIRECTION 3  (e Angst)
     0.00092 -0.00008 -0.00013           (  0.00000 -0.00000 -0.00000)
    -0.00008 -0.00113  0.00087           ( -0.00000 -0.00000  0.00001)
    -0.00013  0.00087  0.00008           ( -0.00000  0.00001  0.00000)

 PIEZOELECTRIC TENSOR FIELD DIRECTION 3  (C/m^2)
     0.00008 -0.00001 -0.00001
    -0.00001 -0.00010  0.00008
    -0.00001  0.00008  0.00001

      POSITION         DIRECTION 3           BORN EFFECTIVE CHARGE    (rigid.aug.   ionic)
      1.79638      1.04122      7.30149     0.00008 -0.00055  0.00239 (  0.81316  5.00000)
      0.00707      2.08244      8.69851    -0.00013  0.00056  0.00251 (  0.81316  5.00000)
    total drift (improves with k-points):  -0.00004  0.00001  0.00490

[...]

 MACROSCOPIC STATIC DIELECTRIC TENSOR (including local field effects in DFT)
           4.783077     0.036422     0.001794
           0.036421     4.781714    -0.000017
           0.001797    -0.000017     1.334090

  LATTYP: Found a hexagonal cell.
 ALAT       =     3.6068925390
 C/A-ratio  =     4.4359513978

  Lattice vectors:

 A1 = (   3.6068925390,   0.0000000000,   0.0000000000)
 A2 = (  -1.8034462695,   3.1236605675,   0.0000000000)
 A3 = (   0.0000000000,   0.0000000000,  16.0000000000)

Analysis of symmetry for initial positions (statically):
 Subroutine PRICEL returns:
 Original cell was already a primitive cell.

[...]

The static configuration has the point symmetry S_2 .

Analysis of symmetry for dynamics (positions and initial velocities):
 Subroutine PRICEL returns:
 Original cell was already a primitive cell.

 Routine SETGRP: Setting up the symmetry group for a
 hexagonal supercell.

 Subroutine GETGRP returns: Found  2 space group operations
 (whereof  2 operations were pure point group operations)
 out of a pool of 24 trial point group operations.

The dynamic configuration has the point symmetry S_2 .

 Subroutine INISYM returns: Found  2 space group operations
 (whereof  2 operations are pure point group operations),
 and found     1 'primitive' translations

 KPOINTS: kpoints

Automatic generation of k-mesh.
 Grid dimensions read from file:
 generate k-points for:   13   13    1

 Generating k-lattice:

  Cartesian coordinates                     Fractional coordinates (reciprocal lattice)
     0.021326689  0.012312970  0.000000000     0.076923077  0.000000000  0.000000000
     0.000000000  0.024625940  0.000000000     0.000000000  0.076923077  0.000000000
     0.000000000  0.000000000  0.062500000     0.000000000  0.000000000  1.000000000

  Length of vectors
     0.024625940  0.024625940  0.062500000

  Shift w.r.t. Gamma in fractional coordinates (k-lattice)
     0.000000000  0.000000000  0.000000000

 Subroutine IBZKPT returns following result:

 Found     85 irreducible k-points:

 Following reciprocal coordinates:
            Coordinates               Weight
  0.000000  0.000000  0.000000      1.000000
  0.076923  0.000000  0.000000      2.000000
  0.000000  0.076923  0.000000      2.000000
 -0.076923  0.076923  0.000000      2.000000
  0.153846  0.000000  0.000000      2.000000
  0.000000  0.153846  0.000000      2.000000
 -0.153846  0.153846  0.000000      2.000000
  0.230769 -0.000000  0.000000      2.000000
  0.000000  0.230769  0.000000      2.000000
 -0.230769  0.230769  0.000000      2.000000
  0.307692  0.000000  0.000000      2.000000
  0.000000  0.307692  0.000000      2.000000
 -0.307692  0.307692  0.000000      2.000000
  0.384615  0.000000  0.000000      2.000000
  0.000000  0.384615  0.000000      2.000000
 -0.384615  0.384615  0.000000      2.000000
  0.461538 -0.000000  0.000000      2.000000
  0.000000  0.461538  0.000000      2.000000
 -0.461538  0.461538  0.000000      2.000000
  0.076923  0.076923  0.000000      2.000000
 -0.076923  0.153846  0.000000      2.000000
 -0.153846  0.076923  0.000000      2.000000
  0.153846  0.076923  0.000000      2.000000
 -0.076923  0.230769  0.000000      2.000000
 -0.230769  0.153846  0.000000      2.000000
 -0.153846  0.230769  0.000000      2.000000
  0.076923  0.153846  0.000000      2.000000
  0.230769 -0.076923  0.000000      2.000000
  0.230769  0.076923  0.000000      2.000000
 -0.076923  0.307692  0.000000      2.000000
 -0.307692  0.230769  0.000000      2.000000
 -0.230769  0.307692  0.000000      2.000000
  0.076923  0.230769  0.000000      2.000000
  0.307692 -0.076923  0.000000      2.000000
  0.307692  0.076923  0.000000      2.000000
 -0.076923  0.384615  0.000000      2.000000
 -0.384615  0.307692  0.000000      2.000000
 -0.307692  0.384615  0.000000      2.000000
  0.076923  0.307692  0.000000      2.000000
  0.384615 -0.076923  0.000000      2.000000
  0.384615  0.076923  0.000000      2.000000
 -0.076923  0.461538  0.000000      2.000000
 -0.461538  0.384615  0.000000      2.000000
 -0.384615  0.461538  0.000000      2.000000
  0.076923  0.384615  0.000000      2.000000
  0.461538 -0.076923  0.000000      2.000000
  0.461538  0.076923  0.000000      2.000000
 -0.076923 -0.461538  0.000000      2.000000
  0.461538  0.461538  0.000000      2.000000
  0.153846  0.153846  0.000000      2.000000
 -0.153846  0.307692  0.000000      2.000000
 -0.307692  0.153846  0.000000      2.000000
  0.230769  0.153846  0.000000      2.000000
 -0.153846  0.384615  0.000000      2.000000
 -0.384615  0.230769  0.000000      2.000000
 -0.230769  0.384615  0.000000      2.000000
  0.153846  0.230769  0.000000      2.000000
  0.384615 -0.153846  0.000000      2.000000
  0.307692  0.153846  0.000000      2.000000
 -0.153846  0.461538  0.000000      2.000000
[...]
  0.230769  0.230769  0.000000      2.000000
 -0.230769  0.461538  0.000000      2.000000
 -0.461538  0.230769  0.000000      2.000000
  0.307692  0.230769  0.000000      2.000000
 -0.230769 -0.461538  0.000000      2.000000
  0.461538  0.307692  0.000000      2.000000
 -0.307692 -0.461538  0.000000      2.000000
  0.230769  0.307692  0.000000      2.000000
 -0.461538 -0.230769  0.000000      2.000000
  0.384615  0.230769  0.000000      2.000000
 -0.230769 -0.384615  0.000000      2.000000
  0.384615  0.384615  0.000000      2.000000
  0.307692  0.307692  0.000000      2.000000
 -0.307692 -0.384615  0.000000      2.000000
  0.384615  0.307692  0.000000      2.000000

 Following cartesian coordinates:
            Coordinates               Weight
  0.000000  0.000000  0.000000      1.000000
  0.021327  0.012313  0.000000      2.000000
  0.000000  0.024626  0.000000      2.000000
 -0.021327  0.012313  0.000000      2.000000
  0.042653  0.024626  0.000000      2.000000
  0.000000  0.049252  0.000000      2.000000
 -0.042653  0.024626  0.000000      2.000000
  0.063980  0.036939  0.000000      2.000000
  0.000000  0.073878  0.000000      2.000000
 -0.063980  0.036939  0.000000      2.000000
  0.085307  0.049252  0.000000      2.000000
  0.000000  0.098504  0.000000      2.000000
 -0.085307  0.049252  0.000000      2.000000
  0.106633  0.061565  0.000000      2.000000
  0.000000  0.123130  0.000000      2.000000
 -0.106633  0.061565  0.000000      2.000000
  0.127960  0.073878  0.000000      2.000000
  0.000000  0.147756  0.000000      2.000000
 -0.127960  0.073878  0.000000      2.000000
  0.021327  0.036939  0.000000      2.000000
 -0.021327  0.036939  0.000000      2.000000
 -0.042653  0.000000  0.000000      2.000000
  0.042653  0.049252  0.000000      2.000000
 -0.021327  0.061565  0.000000      2.000000
 -0.063980  0.012313  0.000000      2.000000
 -0.042653  0.049252  0.000000      2.000000
  0.021327  0.061565  0.000000      2.000000
  0.063980  0.012313  0.000000      2.000000
  0.063980  0.061565  0.000000      2.000000
 -0.021327  0.086191  0.000000      2.000000
 -0.085307  0.024626  0.000000      2.000000
 -0.063980  0.061565  0.000000      2.000000
  0.021327  0.086191  0.000000      2.000000
  0.085307  0.024626  0.000000      2.000000
  0.085307  0.073878  0.000000      2.000000
 -0.021327  0.110817  0.000000      2.000000
 -0.106633  0.036939  0.000000      2.000000
 -0.085307  0.073878  0.000000      2.000000
  0.021327  0.110817  0.000000      2.000000
  0.106633  0.036939  0.000000      2.000000
  0.106633  0.086191  0.000000      2.000000
 -0.021327  0.135443  0.000000      2.000000
 -0.127960  0.049252  0.000000      2.000000
 -0.106633  0.086191  0.000000      2.000000
  0.021327  0.135443  0.000000      2.000000
  0.127960  0.049252  0.000000      2.000000
  0.127960  0.098504  0.000000      2.000000
 -0.021327 -0.160069  0.000000      2.000000
  0.127960  0.221633  0.000000      2.000000
  0.042653  0.073878  0.000000      2.000000
 -0.042653  0.073878  0.000000      2.000000
 -0.085307  0.000000  0.000000      2.000000
  0.063980  0.086191  0.000000      2.000000
 -0.042653  0.098504  0.000000      2.000000
 -0.106633  0.012313  0.000000      2.000000
 -0.063980  0.086191  0.000000      2.000000
  0.042653  0.098504  0.000000      2.000000
  0.106633  0.012313  0.000000      2.000000
  0.085307  0.098504  0.000000      2.000000
 -0.042653  0.123130  0.000000      2.000000
[...]
  0.063980  0.110817  0.000000      2.000000
 -0.063980  0.110817  0.000000      2.000000
 -0.127960  0.000000  0.000000      2.000000
  0.085307  0.123130  0.000000      2.000000
 -0.063980 -0.184695  0.000000      2.000000
  0.127960  0.172382  0.000000      2.000000
 -0.085307 -0.197008  0.000000      2.000000
  0.063980  0.135443  0.000000      2.000000
 -0.127960 -0.147756  0.000000      2.000000
  0.106633  0.135443  0.000000      2.000000
 -0.063980 -0.160069  0.000000      2.000000
  0.106633  0.184695  0.000000      2.000000
  0.085307  0.147756  0.000000      2.000000
 -0.085307 -0.172382  0.000000      2.000000
  0.106633  0.160069  0.000000      2.000000

 MACROSCOPIC STATIC DIELECTRIC TENSOR (including local field effects in DFT)
           4.783077     0.036422     0.001794
           0.036421     4.781714    -0.000017
           0.001797    -0.000017     1.334090

 PIEZOELECTRIC TENSOR (including local field effects)  for field in x, y, z        (e  Angst)
          XX          YY          ZZ          XY          YZ          ZX
  x     0.00000     0.00000     0.00000     0.00000     0.00000     0.00000
  y     0.00000     0.00000     0.00000     0.00000     0.00000     0.00000
  z     0.00000     0.00000     0.00000     0.00000     0.00000     0.00000

 PIEZOELECTRIC TENSOR (including local field effects)  for field in x, y, z        (C/m^2)
          XX          YY          ZZ          XY          YZ          ZX
  x     0.00000     0.00000     0.00000     0.00000     0.00000     0.00000
  y     0.00000     0.00000     0.00000     0.00000     0.00000     0.00000
  z     0.00000     0.00000     0.00000     0.00000     0.00000     0.00000

 BORN EFFECTIVE CHARGES (including local field effects) (in |e|, cummulative output)
 ion    1
    1     0.00000     0.00000     0.00000
    2     0.00000     0.00000     0.00000
    3     0.00000     0.00000     0.00000
 ion    2
    1     0.00000     0.00000     0.00000
    2     0.00000     0.00000     0.00000
    3     0.00000     0.00000     0.00000

 total charge

# of ion       s       p       d       tot
    1        1.291   1.352   0.041   2.684
    2        1.291   1.352   0.041   2.684
tot          2.582   2.704   0.082   5.368