 vasp.6.4.2 20Jul23 (build Nov 14 2023 12:59:38) complex

 executed on             LinuxIFC date 2023.12.29  15:48:08

 INCAR:
   ENCUT = 234.789750
   ALGO = Normal
   NELM = 200
   NELMIN = 6
   NELMDL = -12
   EDIFF = 1.0E-6
   AMIX = 0.1
   BMIX = 0.0001
   PREC = Accurate
   IVDW = 0
   ISPIN = 1
   ADDGRID = .TRUE.
   LASPH = .TRUE.
   LREAL = .FALSE.
   LEPSILON = .TRUE.
   ISMEAR = 0
   SIGMA = 0.01
   LORBIT = 10
   NEDOS = 6001
   NWRITE = 3
   LWAVE = .FALSE.
   LCHARG = .FALSE.
   ICHARG = 2
   LELF = .FALSE.
   LVTOT = .FALSE.
   LPLANE = .TRUE.

 POTCAR:    PAW_PBE As_GW 20Mar2012
|           W    W    AA    RRRRR   N    N  II  N    N   GGGG   !!!           |
|           W    W   A  A   R    R  NN   N  II  NN   N  G    G  !!!           |
|           W    W  A    A  R    R  N N  N  II  N N  N  G       !!!           |
|           W WW W  AAAAAA  RRRRR   N  N N  II  N  N N  G  GGG   !            |
|           WW  WW  A    A  R   R   N   NN  II  N   NN  G    G                |
|           W    W  A    A  R    R  N    N  II  N    N   GGGG   !!!           |
|     For optimal performance we recommend to set                             |
|       NCORE = 2 up to number-of-cores-per-socket                            |
|     This setting can greatly improve the performance of VASP for DFT.       |
|     The default, NCORE=1 might be grossly inefficient on modern             |
|     multi-core architectures or massively parallel machines. Do your        |
|     Unfortunately you need to use the default for GW and RPA                |
|     calculations (for HF NCORE is supported but not extensively tested      |
|     yet).                                                                   |

   TITEL  = PAW_PBE As_GW 20Mar2012
   POMASS =   74.922; ZVAL   =    5.000    mass and valenz
   ENMAX  =  208.702; ENMIN  =  156.526 eV

  PAW_PBE As_GW 20Mar2012               :

 POSCAR: OUTCAR.0001.+1.out 1.0e-02
  positions in cartesian coordinates
 exchange correlation table for  LEXCH =        8
   RHO(1)=    0.500       N(1)  =     2000
   RHO(2)=  100.500       N(2)  =     4000

 ion  position               nearest neighbor table
   1  0.667  0.333  0.456-   2 2.52   2 2.52   2 2.52
   2  0.333  0.667  0.544-   1 2.52   1 2.52   1 2.52

  LATTYP: Found a hexagonal cell.
 ALAT       =     3.6068925390
 C/A-ratio  =     4.4359513978

  Lattice vectors:

 A1 = (   3.6068925390,   0.0000000000,   0.0000000000)
 A2 = (  -1.8034462695,   3.1236605675,   0.0000000000)
 A3 = (   0.0000000000,   0.0000000000,  16.0000000000)

Analysis of symmetry for initial positions (statically):
 Subroutine PRICEL returns:
 Original cell was already a primitive cell.

 Routine SETGRP: Setting up the symmetry group for a
 hexagonal supercell.

 Subroutine GETGRP returns: Found 12 space group operations
 (whereof 12 operations were pure point group operations)
 out of a pool of 24 trial point group operations.

The static configuration has the point symmetry D_3d.

Analysis of symmetry for dynamics (positions and initial velocities):
 Subroutine PRICEL returns:
 Original cell was already a primitive cell.

[...]

The dynamic configuration has the point symmetry D_3d.

 Subroutine INISYM returns: Found 12 space group operations
 (whereof 12 operations are pure point group operations),
 and found     1 'primitive' translations

 irot  :   1
 isymop:   1   0   0
           0   1   0
           0   0   1

 gtrans:     0.0000000     0.0000000     0.0000000

 ptrans:     0.0000000     0.0000000     0.0000000

 rotmap:
 (   1->   1)  (   2->   2)

[...]

 irot  :  12
 isymop:   0  -1   0
          -1   0   0
           0   0   1

 gtrans:     0.0000000     0.0000000     0.0000000

 ptrans:     0.0000000     0.0000000     0.0000000

 rotmap:
 (   1->   1)  (   2->   2)

                                     Primitive cell

  volume of cell :     180.2673

  direct lattice vectors                    reciprocal lattice vectors
     3.606892539  0.000000000  0.000000000     0.277246962  0.160068608  0.000000000
    -1.803446269  3.123660567  0.000000000     0.000000000  0.320137217  0.000000000
     0.000000000  0.000000000 16.000000000     0.000000000  0.000000000  0.062500000

  length of vectors
     3.606892539  3.606892539 16.000000000     0.320137217  0.320137217  0.062500000

  position of ions in fractional coordinates (direct lattice)
     0.666666667  0.333333333  0.455901194
     0.333333333  0.666666667  0.544098806

  ion indices of the primitive-cell ions
   primitive index   ion index
                 1           1
                 2           2

 KPOINTS: kpoints

Automatic generation of k-mesh.
 Grid dimensions read from file:
 generate k-points for:   13   13    1

 Generating k-lattice:

  Cartesian coordinates                     Fractional coordinates (reciprocal lattice)
     0.021326689  0.012312970  0.000000000     0.076923077  0.000000000  0.000000000
     0.000000000  0.024625940  0.000000000     0.000000000  0.076923077  0.000000000
     0.000000000  0.000000000  0.062500000     0.000000000  0.000000000  1.000000000

  Length of vectors
     0.024625940  0.024625940  0.062500000

  Shift w.r.t. Gamma in fractional coordinates (k-lattice)
     0.000000000  0.000000000  0.000000000

 Subroutine IBZKPT returns following result:

 Found     21 irreducible k-points:

 Following reciprocal coordinates:
            Coordinates               Weight
  0.000000  0.000000  0.000000      1.000000
  0.076923  0.000000  0.000000      6.000000
  0.153846  0.000000  0.000000      6.000000
  0.230769 -0.000000  0.000000      6.000000
  0.307692  0.000000  0.000000      6.000000
  0.384615  0.000000  0.000000      6.000000
  0.461538 -0.000000  0.000000      6.000000
  0.076923  0.076923  0.000000      6.000000
  0.153846  0.076923  0.000000     12.000000
  0.230769  0.076923  0.000000     12.000000
  0.307692  0.076923  0.000000     12.000000
  0.384615  0.076923  0.000000     12.000000
  0.461538  0.076923  0.000000      6.000000
  0.153846  0.153846  0.000000      6.000000
  0.230769  0.153846  0.000000     12.000000
  0.307692  0.153846  0.000000     12.000000
  0.384615  0.153846  0.000000     12.000000
  0.230769  0.230769  0.000000      6.000000
  0.307692  0.230769  0.000000     12.000000
  0.384615  0.230769  0.000000      6.000000
  0.307692  0.307692  0.000000      6.000000

 Following cartesian coordinates:
            Coordinates               Weight
  0.000000  0.000000  0.000000      1.000000
  0.021327  0.012313  0.000000      6.000000
  0.042653  0.024626  0.000000      6.000000
  0.063980  0.036939  0.000000      6.000000
  0.085307  0.049252  0.000000      6.000000
  0.106633  0.061565  0.000000      6.000000
  0.127960  0.073878  0.000000      6.000000
  0.021327  0.036939  0.000000      6.000000
  0.042653  0.049252  0.000000     12.000000
  0.063980  0.061565  0.000000     12.000000
  0.085307  0.073878  0.000000     12.000000
  0.106633  0.086191  0.000000     12.000000
  0.127960  0.098504  0.000000      6.000000
  0.042653  0.073878  0.000000      6.000000
  0.063980  0.086191  0.000000     12.000000
  0.085307  0.098504  0.000000     12.000000
  0.106633  0.110817  0.000000     12.000000
  0.063980  0.110817  0.000000      6.000000
  0.085307  0.123130  0.000000     12.000000
  0.106633  0.135443  0.000000      6.000000
  0.085307  0.147756  0.000000      6.000000

 Subroutine IBZKPT_HF returns following result:

 Found    169 k-points in 1st BZ
 the following    169 k-points will be used (e.g. in the exchange kernel)
 Following reciprocal coordinates:   # in IRBZ
  0.000000  0.000000  0.000000    0.00591716   1 t-inv F
  0.076923  0.000000  0.000000    0.00591716   2 t-inv F
  0.153846  0.000000  0.000000    0.00591716   3 t-inv F
  0.230769 -0.000000  0.000000    0.00591716   4 t-inv F
  0.307692  0.000000  0.000000    0.00591716   5 t-inv F
  0.384615  0.000000  0.000000    0.00591716   6 t-inv F
  0.461538 -0.000000  0.000000    0.00591716   7 t-inv F
  0.076923  0.076923  0.000000    0.00591716   8 t-inv F
  0.153846  0.076923  0.000000    0.00591716   9 t-inv F
  0.230769  0.076923  0.000000    0.00591716  10 t-inv F
  0.307692  0.076923  0.000000    0.00591716  11 t-inv F
  0.384615  0.076923  0.000000    0.00591716  12 t-inv F
  0.461538  0.076923  0.000000    0.00591716  13 t-inv F
  0.153846  0.153846  0.000000    0.00591716  14 t-inv F
  0.230769  0.153846  0.000000    0.00591716  15 t-inv F
  0.307692  0.153846  0.000000    0.00591716  16 t-inv F
  0.384615  0.153846  0.000000    0.00591716  17 t-inv F
  0.230769  0.230769  0.000000    0.00591716  18 t-inv F
  0.307692  0.230769  0.000000    0.00591716  19 t-inv F
  0.384615  0.230769  0.000000    0.00591716  20 t-inv F
  0.307692  0.307692  0.000000    0.00591716  21 t-inv F
 -0.076923 -0.000000  0.000000    0.00591716   2 t-inv F
 -0.076923  0.076923  0.000000    0.00591716   2 t-inv F
  0.076923 -0.076923  0.000000    0.00591716   2 t-inv F
  0.000000 -0.076923  0.000000    0.00591716   2 t-inv F
 -0.000000  0.076923  0.000000    0.00591716   2 t-inv F
 -0.153846 -0.000000  0.000000    0.00591716   3 t-inv F
 -0.153846  0.153846  0.000000    0.00591716   3 t-inv F
  0.153846 -0.153846  0.000000    0.00591716   3 t-inv F
  0.000000 -0.153846  0.000000    0.00591716   3 t-inv F
 -0.000000  0.153846  0.000000    0.00591716   3 t-inv F
 -0.230769  0.000000  0.000000    0.00591716   4 t-inv F
 -0.230769  0.230769  0.000000    0.00591716   4 t-inv F
  0.230769 -0.230769  0.000000    0.00591716   4 t-inv F
 -0.000000 -0.230769  0.000000    0.00591716   4 t-inv F
  0.000000  0.230769  0.000000    0.00591716   4 t-inv F
 -0.307692 -0.000000  0.000000    0.00591716   5 t-inv F
 -0.307692  0.307692  0.000000    0.00591716   5 t-inv F
  0.307692 -0.307692  0.000000    0.00591716   5 t-inv F
  0.000000 -0.307692  0.000000    0.00591716   5 t-inv F
 -0.000000  0.307692  0.000000    0.00591716   5 t-inv F
 -0.384615  0.000000  0.000000    0.00591716   6 t-inv F
 -0.384615  0.384615  0.000000    0.00591716   6 t-inv F
  0.384615 -0.384615  0.000000    0.00591716   6 t-inv F
  0.000000 -0.384615  0.000000    0.00591716   6 t-inv F
  0.000000  0.384615  0.000000    0.00591716   6 t-inv F
 -0.461538  0.000000  0.000000    0.00591716   7 t-inv F
 -0.461538  0.461538  0.000000    0.00591716   7 t-inv F
  0.461538 -0.461538  0.000000    0.00591716   7 t-inv F
 -0.000000 -0.461538  0.000000    0.00591716   7 t-inv F
  0.000000  0.461538  0.000000    0.00591716   7 t-inv F
 -0.076923 -0.076923  0.000000    0.00591716   8 t-inv F
 -0.153846  0.076923  0.000000    0.00591716   8 t-inv F
  0.153846 -0.076923  0.000000    0.00591716   8 t-inv F
  0.076923 -0.153846  0.000000    0.00591716   8 t-inv F
 -0.076923  0.153846  0.000000    0.00591716   8 t-inv F
 -0.153846 -0.076923  0.000000    0.00591716   9 t-inv F
 -0.230769  0.153846  0.000000    0.00591716   9 t-inv F
  0.230769 -0.153846  0.000000    0.00591716   9 t-inv F
  0.076923 -0.230769  0.000000    0.00591716   9 t-inv F
[...]
 -0.307692  0.538462  0.000000    0.00591716  19 t-inv F
 -0.538462  0.230769  0.000000    0.00591716  19 t-inv F
[...]
     13       9.6371      0.00000
     14      10.4046      0.00000
     15      13.3484      0.00000
     16      13.9203      0.00000

[...]

 soft charge-density along one line, spin component           1
         0         1         2         3         4         5         6         7         8         9
 total charge-density along one line

[...]

 eigenvalue-minimisations  :  1008
 total energy-change (2. order) :-0.3006923E+02  (-0.2985173E+02)
 number of electron      10.0000000 magnetization
 augmentation part       10.0000000 magnetization

[...]

 eigenvalue-minimisations  :   448
 total energy-change (2. order) : 0.7730705E-11  ( 0.2367074E-13)
 number of electron      10.0000000 magnetization
 augmentation part       -1.6440067 magnetization

 Broyden mixing:
  rms(total) = 0.19121E+00    rms(broyden)= 0.19109E+00
  rms(prec ) = 0.21511E+00
  weight for this iteration     100.00

[...]

 eigenvalues of (default mixing * dielectric matrix)
  average eigenvalue GAMMA=   9.0756
  9.0756

[...]

 eigenvalue-minimisations  :   816
 total energy-change (2. order) :-0.4628478E-05  (-0.8609227E-05)
 number of electron      10.0000000 magnetization
 augmentation part       -1.6265776 magnetization

[...]

--------------------------------------- Iteration      1(  19)  ---------------------------------------

 eigenvalue-minimisations  :   816
 total energy-change (2. order) : 0.8232627E-06  (-0.5184865E-06)
 number of electron      10.0000000 magnetization
 augmentation part       -1.6265776 magnetization

 Free energy of the ion-electron system (eV)
  alpha Z        PSCENC =         5.26383816
  Ewald energy   TEWEN  =       376.29297887
  -Hartree energ DENC   =      -668.47535134
  -exchange      EXHF   =         0.00000000
  -V(xc)+E(xc)   XCENC  =       -23.51838372
  PAW double counting   =       331.06454145     -288.33149420
  entropy T*S    EENTRO =        -0.00000000
  eigenvalues    EBANDS =       -82.00033154
  atomic energy  EATOM  =       340.36393574
  Solvation  Ediel_sol  =         0.00000000
  free energy    TOTEN  =        -9.34026657 eV

  energy without entropy =       -9.34026657  energy(sigma->0) =       -9.34026657

 average (electrostatic) potential at core
  the test charge radii are     1.0621
  (the norm of the test charge is              1.0000)
       1 -57.2494       2 -57.2494

 E-fermi :  -2.9006     XC(G=0):  -3.2549     alpha+bet : -2.4472

 Fermi energy:        -2.9005916125

[...]

 k-point    21 :       0.3077    0.3077    0.0000
  band No.  band energies     occupation
      1     -13.2451      2.00000
      2     -12.5492      2.00000
      3      -7.2271      2.00000
      4      -5.2604      2.00000
      5      -4.7224      2.00000
      6      -0.9624      0.00000
      7       1.2427      0.00000
      8       1.6610      0.00000
      9       5.1335      0.00000
     10       5.5702      0.00000
     11       5.6636      0.00000
     12       6.1754      0.00000
     13       6.6757      0.00000
     14       7.0148      0.00000
     15       7.2283      0.00000
     16       7.3973      0.00000

 soft charge-density along one line, spin component           1
         0         1         2         3         4         5         6         7         8         9
 total charge-density along one line

------------------------ aborting loop because EDIFF is reached ----------------------------------------

 total charge

# of ion       s       p       d       tot
    1        1.292   1.347   0.040   2.679
    2        1.292   1.347   0.040   2.679
tot          2.584   2.694   0.081   5.358

  FORCE on cell =-STRESS in cart. coord.  units (eV):
  Direction    XX          YY          ZZ          XY          YZ          ZX
  Alpha Z     5.26384     5.26384     5.26384
  Ewald     614.72864   614.72864  -853.16425     0.00000     0.00000     0.00000
  Hartree   654.56952   654.56952  -640.65957    -0.00000    -0.00000    -0.00000
  E(xc)     -36.96569   -36.96569   -37.38336     0.00000     0.00000    -0.00000
  Local   -1398.20845 -1398.20851  1359.16369    -0.00005     0.00000    -0.00000
  n-local    73.80513    74.44091    74.92427    -0.48173     0.22891    -0.95906
  augment    -2.79466    -2.79460    -3.18387     0.00005     0.00000    -0.00000
  Kinetic    87.58619    90.73435    94.73894     1.42513    -0.35293    -1.91055
  Fock        0.00000     0.00000     0.00000     0.00000     0.00000     0.00000
  Total      -0.12353    -0.12353    -0.30032    -0.00000    -0.00000     0.00000
  in kB      -1.09786    -1.09786    -2.66918    -0.00000    -0.00000     0.00000

 VOLUME and BASIS-vectors are now :
  energy-cutoff  :      234.79
  volume of cell :      180.27
      direct lattice vectors                 reciprocal lattice vectors
     3.606892539  0.000000000  0.000000000     0.277246962  0.160068608  0.000000000
    -1.803446269  3.123660567  0.000000000     0.000000000  0.320137217  0.000000000
     0.000000000  0.000000000 16.000000000     0.000000000  0.000000000  0.062500000

  length of vectors
     3.606892539  3.606892539 16.000000000     0.320137217  0.320137217  0.062500000

 FORCES acting on ions
    electron-ion (+dipol)            ewald-force                    non-local-force                 convergence-correction
   0.728E-06 -.213E-06 0.131E+03   -.466E-09 -.136E-08 -.136E+03   0.347E-16 0.000E+00 0.583E+01   0.149E-06 -.863E-07 -.227E-02
   -.731E-06 0.206E-06 -.131E+03   0.466E-09 0.136E-08 0.136E+03   0.000E+00 0.000E+00 -.583E+01   -.149E-06 0.863E-07 0.227E-02
   -.368E-08 -.745E-08 -.101E-11   -.111E-14 -.253E-14 0.000E+00   0.347E-16 0.000E+00 0.178E-14   0.466E-12 0.941E-12 -.550E-13

 POSITION                                       TOTAL-FORCE (eV/Angst)
      1.80345      1.04122      7.29442         0.000000     -0.000000      0.181515
     -0.00000      2.08244      8.70558        -0.000000      0.000000     -0.181515
    total drift:                               -0.000000     -0.000000     -0.000000

  FREE ENERGIE OF THE ION-ELECTRON SYSTEM (eV)
  free  energy   TOTEN  =        -9.34026657 eV

  energy  without entropy=       -9.34026657  energy(sigma->0) =       -9.34026657

 Linear response reoptimize wavefunctions
 Linear response G [H, r] |phi>, progress :
  Direction:   1

----------------------------------------- Iteration    1(   1)  ---------------------------------------

  free energy    TOTEN  =       -39.91627563 eV

[...]

 Linear response G [H, r] |phi>, progress :
  Direction:   2

[...]

 Linear response G [H, r] |phi>, progress :
  Direction:   3

[...]

  free energy    TOTEN  =       -40.63333624 eV

[...]

 Linear response to external field (no local field effect), progress :
  Direction:   1
  LATTYP: Found a hexagonal cell.
 ALAT       =     3.6068925390
 C/A-ratio  =     4.4359513978

[...]

The dynamic configuration has the point symmetry C_2 .

[...]

 Free energy of the ion-electron system (eV)
  -Hartree energ DENC   =         0.00000000
  -V(xc)+E(xc)   XCENC  =         0.00000000
  PAW double counting   =         0.00000000        0.00000000
  entropy T*S    EENTRO =         0.00000000
  eigenvalues    EBANDS =        -1.81260898
  free energy    TOTEN  =        -1.81260898 eV

  energy without entropy =       -1.81260898

[...]

 change of polarisation eV/A/(eV/A) component  1 :     3.700    -1.487    -0.102
 dielectric tensor                  component  1 :     4.714    -1.492    -0.102

[...]

The dynamic configuration has the point symmetry C_1h.

[...]

 Linear response to external field (no local field effect), progress :
  Direction:   3
  LATTYP: Found a hexagonal cell.
 ALAT       =     3.6068925390
 C/A-ratio  =     4.4359513978

[...]

The dynamic configuration has the point symmetry C_3v.

[...]

 HEAD OF MICROSCOPIC STATIC DIELECTRIC TENSOR (INDEPENDENT PARTICLE, excluding Hartree and local field effects)
           5.109070     0.000000     0.000000
           0.000000     5.109070     0.000000
           0.000000     0.000000     2.652821

 Linear response to external field, progress :
  Direction:   1
  LATTYP: Found a hexagonal cell.
 ALAT       =     3.6068925390
 C/A-ratio  =     4.4359513978

[...]

The dynamic configuration has the point symmetry C_2 .

[...]

 PIEZOELECTRIC TENSOR FIELD DIRECTION 1  (e Angst)
     0.00347 -0.00000  0.00000           ( -0.00003 -0.00000  0.00000)
    -0.00000 -0.00058  0.00004           ( -0.00000 -0.00002 -0.00001)
     0.00000  0.00004 -0.00088           (  0.00000 -0.00001  0.00001)

 PIEZOELECTRIC TENSOR FIELD DIRECTION 1  (C/m^2)
     0.00031 -0.00000  0.00000
    -0.00000 -0.00005  0.00000
     0.00000  0.00000 -0.00008

      POSITION         DIRECTION 1           BORN EFFECTIVE CHARGE    (rigid.aug.   ionic)
      1.80345      1.04122      7.29442    -0.01384 -0.00015  0.00086 (  0.81330  5.00000)
     -0.00000      2.08244      8.70558    -0.01384  0.00015 -0.00086 (  0.81330  5.00000)
    total drift (improves with k-points):  -0.02768  0.00000  0.00000

[...]

The dynamic configuration has the point symmetry C_1h.

[...]

 Linear response to external field, progress :
  Direction:   3
  LATTYP: Found a hexagonal cell.
 ALAT       =     3.6068925390
 C/A-ratio  =     4.4359513978

[...]

The dynamic configuration has the point symmetry C_3v.

[...]

----------------------------------------- Iteration    3(  13)  ---------------------------------------

 Broyden mixing:
  rms(total) = 0.69771E-05    rms(broyden)= 0.69763E-05
  rms(prec ) = 0.81815E-05
  weight for this iteration     100.00

 eigenvalues of (default mixing * dielectric matrix)
  average eigenvalue GAMMA=   4.2840
 10.4370  9.8969  7.8873  7.0590  5.3800  1.4865  1.0276  1.0094  0.9899  0.9899
  0.9608

 Free energy of the ion-electron system (eV)
  -Hartree energ DENC   =        -0.12410175
  -V(xc)+E(xc)   XCENC  =         0.00448802
  PAW double counting   =         0.01383171       -0.01375295
  entropy T*S    EENTRO =         0.00000000
  eigenvalues    EBANDS =        -0.05818786
  free energy    TOTEN  =        -0.17772284 eV

  energy without entropy =       -0.17772284

------------------------ aborting loop because EDIFF is reached ----------------------------------------

 change of polarisation eV/A/(eV/A) component  3 :    -0.031     0.000     0.334
 dielectric tensor                  component  3 :    -0.031     0.000     1.335

 PIEZOELECTRIC TENSOR FIELD DIRECTION 3  (e Angst)
    -0.00031  0.00000 -0.00000           (  0.00000  0.00000  0.00000)
     0.00000 -0.00031 -0.00000           (  0.00000  0.00000  0.00000)
     0.00000  0.00000  0.00022           (  0.00000  0.00000  0.00000)

 PIEZOELECTRIC TENSOR FIELD DIRECTION 3  (C/m^2)
    -0.00003  0.00000 -0.00000
     0.00000 -0.00003 -0.00000
     0.00000  0.00000  0.00002

      POSITION         DIRECTION 3           BORN EFFECTIVE CHARGE    (rigid.aug.   ionic)
      1.80345      1.04122      7.29442    -0.00000 -0.00000  0.00231 (  0.81330  5.00000)
     -0.00000      2.08244      8.70558    -0.00000  0.00000  0.00266 (  0.81330  5.00000)
    total drift (improves with k-points):  -0.00000 -0.00000  0.00497

[...]

 MACROSCOPIC STATIC DIELECTRIC TENSOR (including local field effects in DFT)
           4.823046     0.000000     0.000000
           0.000000     4.823046    -0.000000
          -0.000000     0.000000     1.335380

  LATTYP: Found a hexagonal cell.
 ALAT       =     3.6068925390
 C/A-ratio  =     4.4359513978

  Lattice vectors:

 A1 = (   3.6068925390,   0.0000000000,   0.0000000000)
 A2 = (  -1.8034462695,   3.1236605675,   0.0000000000)
 A3 = (   0.0000000000,   0.0000000000,  16.0000000000)

Analysis of symmetry for initial positions (statically):
 Subroutine PRICEL returns:
 Original cell was already a primitive cell.

[...]

The static configuration has the point symmetry D_3d.

Analysis of symmetry for dynamics (positions and initial velocities):
 Subroutine PRICEL returns:
 Original cell was already a primitive cell.

 Routine SETGRP: Setting up the symmetry group for a
 hexagonal supercell.

 Subroutine GETGRP returns: Found 12 space group operations
 (whereof 12 operations were pure point group operations)
 out of a pool of 24 trial point group operations.

The dynamic configuration has the point symmetry D_3d.

 Subroutine INISYM returns: Found 12 space group operations
 (whereof 12 operations are pure point group operations),
 and found     1 'primitive' translations

 KPOINTS: kpoints

Automatic generation of k-mesh.
 Grid dimensions read from file:
 generate k-points for:   13   13    1

 Generating k-lattice:

  Cartesian coordinates                     Fractional coordinates (reciprocal lattice)
     0.021326689  0.012312970  0.000000000     0.076923077  0.000000000  0.000000000
     0.000000000  0.024625940  0.000000000     0.000000000  0.076923077  0.000000000
     0.000000000  0.000000000  0.062500000     0.000000000  0.000000000  1.000000000

  Length of vectors
     0.024625940  0.024625940  0.062500000

  Shift w.r.t. Gamma in fractional coordinates (k-lattice)
     0.000000000  0.000000000  0.000000000

 Subroutine IBZKPT returns following result:

 Found     21 irreducible k-points:

 Following reciprocal coordinates:
            Coordinates               Weight
  0.000000  0.000000  0.000000      1.000000
  0.076923  0.000000  0.000000      6.000000
  0.153846  0.000000  0.000000      6.000000
  0.230769 -0.000000  0.000000      6.000000
  0.307692  0.000000  0.000000      6.000000
  0.384615  0.000000  0.000000      6.000000
  0.461538 -0.000000  0.000000      6.000000
  0.076923  0.076923  0.000000      6.000000
  0.153846  0.076923  0.000000     12.000000
  0.230769  0.076923  0.000000     12.000000
  0.307692  0.076923  0.000000     12.000000
  0.384615  0.076923  0.000000     12.000000
  0.461538  0.076923  0.000000      6.000000
  0.153846  0.153846  0.000000      6.000000
  0.230769  0.153846  0.000000     12.000000
  0.307692  0.153846  0.000000     12.000000
  0.384615  0.153846  0.000000     12.000000
  0.230769  0.230769  0.000000      6.000000
  0.307692  0.230769  0.000000     12.000000
  0.384615  0.230769  0.000000      6.000000
  0.307692  0.307692  0.000000      6.000000

 Following cartesian coordinates:
            Coordinates               Weight
  0.000000  0.000000  0.000000      1.000000
  0.021327  0.012313  0.000000      6.000000
  0.042653  0.024626  0.000000      6.000000
  0.063980  0.036939  0.000000      6.000000
  0.085307  0.049252  0.000000      6.000000
  0.106633  0.061565  0.000000      6.000000
  0.127960  0.073878  0.000000      6.000000
  0.021327  0.036939  0.000000      6.000000
  0.042653  0.049252  0.000000     12.000000
  0.063980  0.061565  0.000000     12.000000
  0.085307  0.073878  0.000000     12.000000
  0.106633  0.086191  0.000000     12.000000
  0.127960  0.098504  0.000000      6.000000
  0.042653  0.073878  0.000000      6.000000
  0.063980  0.086191  0.000000     12.000000
  0.085307  0.098504  0.000000     12.000000
  0.106633  0.110817  0.000000     12.000000
  0.063980  0.110817  0.000000      6.000000
  0.085307  0.123130  0.000000     12.000000
  0.106633  0.135443  0.000000      6.000000
  0.085307  0.147756  0.000000      6.000000

 MACROSCOPIC STATIC DIELECTRIC TENSOR (including local field effects in DFT)
           4.823046     0.000000     0.000000
           0.000000     4.823046    -0.000000
          -0.000000     0.000000     1.335380

 PIEZOELECTRIC TENSOR (including local field effects)  for field in x, y, z        (e  Angst)
          XX          YY          ZZ          XY          YZ          ZX
  x     0.00000     0.00000     0.00000     0.00000     0.00000     0.00000
  y     0.00000     0.00000     0.00000     0.00000     0.00000     0.00000
  z     0.00000     0.00000     0.00000     0.00000     0.00000     0.00000

 PIEZOELECTRIC TENSOR (including local field effects)  for field in x, y, z        (C/m^2)
          XX          YY          ZZ          XY          YZ          ZX
  x     0.00000     0.00000     0.00000     0.00000     0.00000     0.00000
  y     0.00000     0.00000     0.00000     0.00000     0.00000     0.00000
  z     0.00000     0.00000     0.00000     0.00000     0.00000     0.00000

 BORN EFFECTIVE CHARGES (including local field effects) (in |e|, cummulative output)
 ion    1
    1     0.00000     0.00000     0.00000
    2     0.00000     0.00000     0.00000
    3     0.00000     0.00000     0.00000
 ion    2
    1     0.00000     0.00000     0.00000
    2     0.00000     0.00000     0.00000
    3     0.00000     0.00000     0.00000

 total charge

# of ion       s       p       d       tot
    1        1.292   1.347   0.040   2.679
    2        1.292   1.347   0.040   2.679
tot          2.584   2.694   0.081   5.358