 vasp.6.4.2 20Jul23 (build Nov 14 2023 12:59:38) complex

 executed on             LinuxIFC date 2023.12.29  16:10:02

 INCAR:
   ENCUT = 193.577625
   ALGO = Normal
   NELM = 200
   NELMIN = 6
   NELMDL = -12
   EDIFF = 1.0E-6
   AMIX = 0.1
   BMIX = 0.0001
   PREC = Accurate
   IVDW = 0
   ISPIN = 1
   ADDGRID = .TRUE.
   LASPH = .TRUE.
   LREAL = .FALSE.
   LEPSILON = .TRUE.
   ISMEAR = 0
   SIGMA = 0.01
   LORBIT = 10
   NEDOS = 6001
   NWRITE = 3
   LWAVE = .FALSE.
   LCHARG = .FALSE.
   ICHARG = 2
   LELF = .FALSE.
   LVTOT = .FALSE.
   LPLANE = .TRUE.

 POTCAR:    PAW_PBE Sb_GW 21Mar2012
|           W    W    AA    RRRRR   N    N  II  N    N   GGGG   !!!           |
|           W    W   A  A   R    R  NN   N  II  NN   N  G    G  !!!           |
|           W    W  A    A  R    R  N N  N  II  N N  N  G       !!!           |
|           W WW W  AAAAAA  RRRRR   N  N N  II  N  N N  G  GGG   !            |
|           WW  WW  A    A  R   R   N   NN  II  N   NN  G    G                |
|           W    W  A    A  R    R  N    N  II  N    N   GGGG   !!!           |
|     For optimal performance we recommend to set                             |
|       NCORE = 2 up to number-of-cores-per-socket                            |
|     This setting can greatly improve the performance of VASP for DFT.       |
|     The default, NCORE=1 might be grossly inefficient on modern             |
|     multi-core architectures or massively parallel machines. Do your        |
|     Unfortunately you need to use the default for GW and RPA                |
|     calculations (for HF NCORE is supported but not extensively tested      |
|     yet).                                                                   |

   TITEL  = PAW_PBE Sb_GW 21Mar2012
   POMASS =  121.750; ZVAL   =    5.000    mass and valenz
   ENMAX  =  172.069; ENMIN  =  129.052 eV

  PAW_PBE Sb_GW 21Mar2012               :

 POSCAR: OUTCAR.0001.-1.out 1.0e-02
  positions in cartesian coordinates
 exchange correlation table for  LEXCH =        8
   RHO(1)=    0.500       N(1)  =     2000
   RHO(2)=  100.500       N(2)  =     4000

 ion  position               nearest neighbor table
   1  0.667  0.333  0.448-   2 2.90   2 2.90   2 2.90
   2  0.333  0.667  0.552-   1 2.90   1 2.90   1 2.90

  LATTYP: Found a hexagonal cell.
 ALAT       =     4.1133665497
 C/A-ratio  =     3.8897578922

  Lattice vectors:

 A1 = (   4.1133665497,   0.0000000000,   0.0000000000)
 A2 = (  -2.0566832748,   3.5622799271,   0.0000000000)
 A3 = (   0.0000000000,   0.0000000000,  16.0000000000)

Analysis of symmetry for initial positions (statically):
 Subroutine PRICEL returns:
 Original cell was already a primitive cell.

 Routine SETGRP: Setting up the symmetry group for a
 hexagonal supercell.

 Subroutine GETGRP returns: Found 12 space group operations
 (whereof 12 operations were pure point group operations)
 out of a pool of 24 trial point group operations.

The static configuration has the point symmetry D_3d.

Analysis of symmetry for dynamics (positions and initial velocities):
 Subroutine PRICEL returns:
 Original cell was already a primitive cell.

[...]

The dynamic configuration has the point symmetry D_3d.

 Subroutine INISYM returns: Found 12 space group operations
 (whereof 12 operations are pure point group operations),
 and found     1 'primitive' translations

 irot  :   1
 isymop:   1   0   0
           0   1   0
           0   0   1

 gtrans:     0.0000000     0.0000000     0.0000000

 ptrans:     0.0000000     0.0000000     0.0000000

 rotmap:
 (   1->   1)  (   2->   2)

[...]

 irot  :  12
 isymop:   0  -1   0
          -1   0   0
           0   0   1

 gtrans:     0.0000000     0.0000000     0.0000000

 ptrans:     0.0000000     0.0000000     0.0000000

 rotmap:
 (   1->   1)  (   2->   2)

                                     Primitive cell

  volume of cell :     234.4474

  direct lattice vectors                    reciprocal lattice vectors
     4.113366550  0.000000000  0.000000000     0.243109868  0.140359548  0.000000000
    -2.056683275  3.562279927  0.000000000     0.000000000  0.280719096  0.000000000
     0.000000000  0.000000000 16.000000000     0.000000000  0.000000000  0.062500000

  length of vectors
     4.113366550  4.113366550 16.000000000     0.280719096  0.280719096  0.062500000

  position of ions in fractional coordinates (direct lattice)
     0.666666667  0.333333333  0.448183457
     0.333333333  0.666666667  0.551816543

  ion indices of the primitive-cell ions
   primitive index   ion index
                 1           1
                 2           2

 KPOINTS: kpoints

Automatic generation of k-mesh.
 Grid dimensions read from file:
 generate k-points for:   11   11    1

 Generating k-lattice:

  Cartesian coordinates                     Fractional coordinates (reciprocal lattice)
     0.022100897  0.012759959  0.000000000     0.090909091  0.000000000  0.000000000
     0.000000000  0.025519918  0.000000000     0.000000000  0.090909091  0.000000000
     0.000000000  0.000000000  0.062500000     0.000000000  0.000000000  1.000000000

  Length of vectors
     0.025519918  0.025519918  0.062500000

  Shift w.r.t. Gamma in fractional coordinates (k-lattice)
     0.000000000  0.000000000  0.000000000

 Subroutine IBZKPT returns following result:

 Found     16 irreducible k-points:

 Following reciprocal coordinates:
            Coordinates               Weight
  0.000000  0.000000  0.000000      1.000000
  0.090909  0.000000  0.000000      6.000000
  0.181818  0.000000  0.000000      6.000000
  0.272727  0.000000  0.000000      6.000000
  0.363636  0.000000  0.000000      6.000000
  0.454545  0.000000  0.000000      6.000000
  0.090909  0.090909  0.000000      6.000000
  0.181818  0.090909  0.000000     12.000000
  0.272727  0.090909  0.000000     12.000000
  0.363636  0.090909  0.000000     12.000000
  0.454545  0.090909  0.000000      6.000000
  0.181818  0.181818  0.000000      6.000000
  0.272727  0.181818  0.000000     12.000000
  0.363636  0.181818  0.000000     12.000000
  0.272727  0.272727  0.000000      6.000000
  0.363636  0.272727  0.000000      6.000000

 Following cartesian coordinates:
            Coordinates               Weight
  0.000000  0.000000  0.000000      1.000000
  0.022101  0.012760  0.000000      6.000000
  0.044202  0.025520  0.000000      6.000000
  0.066303  0.038280  0.000000      6.000000
  0.088404  0.051040  0.000000      6.000000
  0.110504  0.063800  0.000000      6.000000
  0.022101  0.038280  0.000000      6.000000
  0.044202  0.051040  0.000000     12.000000
  0.066303  0.063800  0.000000     12.000000
  0.088404  0.076560  0.000000     12.000000
  0.110504  0.089320  0.000000      6.000000
  0.044202  0.076560  0.000000      6.000000
  0.066303  0.089320  0.000000     12.000000
  0.088404  0.102080  0.000000     12.000000
  0.066303  0.114840  0.000000      6.000000
  0.088404  0.127600  0.000000      6.000000

 Subroutine IBZKPT_HF returns following result:

 Found    121 k-points in 1st BZ
 the following    121 k-points will be used (e.g. in the exchange kernel)
 Following reciprocal coordinates:   # in IRBZ
  0.000000  0.000000  0.000000    0.00826446   1 t-inv F
  0.090909  0.000000  0.000000    0.00826446   2 t-inv F
  0.181818  0.000000  0.000000    0.00826446   3 t-inv F
  0.272727  0.000000  0.000000    0.00826446   4 t-inv F
  0.363636  0.000000  0.000000    0.00826446   5 t-inv F
  0.454545  0.000000  0.000000    0.00826446   6 t-inv F
  0.090909  0.090909  0.000000    0.00826446   7 t-inv F
  0.181818  0.090909  0.000000    0.00826446   8 t-inv F
  0.272727  0.090909  0.000000    0.00826446   9 t-inv F
  0.363636  0.090909  0.000000    0.00826446  10 t-inv F
  0.454545  0.090909  0.000000    0.00826446  11 t-inv F
  0.181818  0.181818  0.000000    0.00826446  12 t-inv F
  0.272727  0.181818  0.000000    0.00826446  13 t-inv F
  0.363636  0.181818  0.000000    0.00826446  14 t-inv F
  0.272727  0.272727  0.000000    0.00826446  15 t-inv F
  0.363636  0.272727  0.000000    0.00826446  16 t-inv F
 -0.090909 -0.000000  0.000000    0.00826446   2 t-inv F
 -0.090909  0.090909  0.000000    0.00826446   2 t-inv F
  0.090909 -0.090909  0.000000    0.00826446   2 t-inv F
  0.000000 -0.090909  0.000000    0.00826446   2 t-inv F
 -0.000000  0.090909  0.000000    0.00826446   2 t-inv F
 -0.181818 -0.000000  0.000000    0.00826446   3 t-inv F
 -0.181818  0.181818  0.000000    0.00826446   3 t-inv F
  0.181818 -0.181818  0.000000    0.00826446   3 t-inv F
  0.000000 -0.181818  0.000000    0.00826446   3 t-inv F
 -0.000000  0.181818  0.000000    0.00826446   3 t-inv F
 -0.272727  0.000000  0.000000    0.00826446   4 t-inv F
 -0.272727  0.272727  0.000000    0.00826446   4 t-inv F
  0.272727 -0.272727  0.000000    0.00826446   4 t-inv F
  0.000000 -0.272727  0.000000    0.00826446   4 t-inv F
  0.000000  0.272727  0.000000    0.00826446   4 t-inv F
 -0.363636  0.000000  0.000000    0.00826446   5 t-inv F
 -0.363636  0.363636  0.000000    0.00826446   5 t-inv F
  0.363636 -0.363636  0.000000    0.00826446   5 t-inv F
  0.000000 -0.363636  0.000000    0.00826446   5 t-inv F
  0.000000  0.363636  0.000000    0.00826446   5 t-inv F
 -0.454545  0.000000  0.000000    0.00826446   6 t-inv F
 -0.454545  0.454545  0.000000    0.00826446   6 t-inv F
  0.454545 -0.454545  0.000000    0.00826446   6 t-inv F
  0.000000 -0.454545  0.000000    0.00826446   6 t-inv F
  0.000000  0.454545  0.000000    0.00826446   6 t-inv F
 -0.090909 -0.090909  0.000000    0.00826446   7 t-inv F
 -0.181818  0.090909  0.000000    0.00826446   7 t-inv F
  0.181818 -0.090909  0.000000    0.00826446   7 t-inv F
  0.090909 -0.181818  0.000000    0.00826446   7 t-inv F
 -0.090909  0.181818  0.000000    0.00826446   7 t-inv F
 -0.181818 -0.090909  0.000000    0.00826446   8 t-inv F
 -0.272727  0.181818  0.000000    0.00826446   8 t-inv F
  0.272727 -0.181818  0.000000    0.00826446   8 t-inv F
  0.090909 -0.272727  0.000000    0.00826446   8 t-inv F
 -0.090909  0.272727  0.000000    0.00826446   8 t-inv F
  0.181818 -0.272727  0.000000    0.00826446   8 t-inv F
 -0.181818  0.272727  0.000000    0.00826446   8 t-inv F
 -0.272727  0.090909  0.000000    0.00826446   8 t-inv F
  0.272727 -0.090909  0.000000    0.00826446   8 t-inv F
  0.090909  0.181818  0.000000    0.00826446   8 t-inv F
 -0.090909 -0.181818  0.000000    0.00826446   8 t-inv F
 -0.272727 -0.090909  0.000000    0.00826446   9 t-inv F
 -0.363636  0.272727  0.000000    0.00826446   9 t-inv F
  0.363636 -0.272727  0.000000    0.00826446   9 t-inv F
[...]
 -0.363636  0.545455  0.000000    0.00826446  14 t-inv F
 -0.545455  0.181818  0.000000    0.00826446  14 t-inv F
  0.545455 -0.181818  0.000000    0.00826446  14 t-inv F
  0.181818  0.363636  0.000000    0.00826446  14 t-inv F
 -0.181818 -0.363636  0.000000    0.00826446  14 t-inv F
 -0.272727 -0.272727  0.000000    0.00826446  15 t-inv F
 -0.545455  0.272727  0.000000    0.00826446  15 t-inv F
  0.545455 -0.272727  0.000000    0.00826446  15 t-inv F
  0.272727 -0.545455  0.000000    0.00826446  15 t-inv F
 -0.272727  0.545455  0.000000    0.00826446  15 t-inv F
[...]
      7       2.4484      0.00000
      8       3.8631      0.00000
      9       4.4106      0.00000
     10       6.1692      0.00000
     11       7.0194      0.00000
     12       8.7258      0.00000
     13       9.9205      0.00000
     14      11.2676      0.00000
     15      11.7491      0.00000
     16      13.3483      0.00000

[...]

 soft charge-density along one line, spin component           1
         0         1         2         3         4         5         6         7         8         9
 total charge-density along one line

[...]

 eigenvalue-minimisations  :   768
 total energy-change (2. order) :-0.2578506E+02  (-0.2527818E+02)
 number of electron      10.0000000 magnetization
 augmentation part       10.0000000 magnetization

[...]

 eigenvalue-minimisations  :   464
 total energy-change (2. order) : 0.0000000E+00  ( 0.2003907E-14)
 number of electron      10.0000000 magnetization
 augmentation part       10.0000000 magnetization

[...]

 eigenvalue-minimisations  :   352
 total energy-change (2. order) : 0.0000000E+00  ( 0.2470457E-12)
 number of electron      10.0000000 magnetization
 augmentation part       -1.6405325 magnetization

 Broyden mixing:
  rms(total) = 0.15815E+00    rms(broyden)= 0.15757E+00
  rms(prec ) = 0.18206E+00
  weight for this iteration     100.00

[...]

 eigenvalues of (default mixing * dielectric matrix)
  average eigenvalue GAMMA=   8.9334
  8.9334

[...]

 eigenvalue-minimisations  :   640
 total energy-change (2. order) :-0.5207395E-05  (-0.1030283E-04)
 number of electron      10.0000000 magnetization
 augmentation part       -1.6253126 magnetization

[...]

--------------------------------------- Iteration      1(  19)  ---------------------------------------

 eigenvalue-minimisations  :   672
 total energy-change (2. order) : 0.4965538E-06  (-0.2626969E-06)
 number of electron      10.0000000 magnetization
 augmentation part       -1.6253126 magnetization

 Free energy of the ion-electron system (eV)
  alpha Z        PSCENC =         2.97593478
  Ewald energy   TEWEN  =       212.48101127
  -Hartree energ DENC   =      -471.65099079
  -exchange      EXHF   =         0.00000000
  -V(xc)+E(xc)   XCENC  =       -92.31439200
  PAW double counting   =       365.42060795     -257.64496345
  entropy T*S    EENTRO =        -0.00000000
  eigenvalues    EBANDS =       -67.27578852
  atomic energy  EATOM  =       299.89217194
  Solvation  Ediel_sol  =         0.00000000
  free energy    TOTEN  =        -8.11640883 eV

  energy without entropy =       -8.11640883  energy(sigma->0) =       -8.11640883

 average (electrostatic) potential at core
  the test charge radii are     1.1712
  (the norm of the test charge is              1.0000)
       1 -80.8974       2 -80.8974

 E-fermi :  -2.1923     XC(G=0):  -3.3552     alpha+bet : -2.6626

 Fermi energy:        -2.1923333320

[...]

 k-point    16 :       0.3636    0.2727    0.0000
  band No.  band energies     occupation
      1     -11.0084      2.00000
      2     -10.4554      2.00000
      3      -5.6892      2.00000
      4      -4.2660      2.00000
      5      -3.8819      2.00000
      6      -0.7239      0.00000
      7       1.0994      0.00000
      8       1.3028      0.00000
      9       4.3019      0.00000
     10       4.4611      0.00000
     11       5.2948      0.00000
     12       5.3813      0.00000
     13       5.5320      0.00000
     14       6.1109      0.00000
     15       6.1306      0.00000
     16       6.2348      0.00000

 soft charge-density along one line, spin component           1
         0         1         2         3         4         5         6         7         8         9
 total charge-density along one line

------------------------ aborting loop because EDIFF is reached ----------------------------------------

 total charge

# of ion       s       p       d       f       tot
    1        1.582   1.840   0.077   0.012   3.511
    2        1.582   1.840   0.077   0.012   3.511
tot          3.163   3.680   0.155   0.024   7.022

  FORCE on cell =-STRESS in cart. coord.  units (eV):
  Direction    XX          YY          ZZ          XY          YZ          ZX
  Alpha Z     2.97593     2.97593     2.97593
  Ewald     420.24752   420.24752  -628.01402    -0.00000     0.00000    -0.00000
  Hartree   460.54929   460.54929  -449.43949     0.00000    -0.00000     0.00000
  E(xc)     -39.88789   -39.88789   -40.31041    -0.00000    -0.00000     0.00000
  Local   -1005.44945 -1005.44945   948.83582     0.00000    -0.00000     0.00000
  n-local   128.12010   129.12036   130.12264    -0.45126     0.29198    -1.41369
  augment   -32.92354   -32.92355   -33.41062    -0.00001     0.00000    -0.00000
  Kinetic    64.58615    66.94172    68.99530     0.94643    -0.32620    -1.48654
  Fock        0.00000     0.00000     0.00000     0.00000     0.00000     0.00000
  Total      -0.10398    -0.10398    -0.24484     0.00000     0.00000     0.00000
  in kB      -0.71059    -0.71059    -1.67320     0.00000     0.00000     0.00000

 VOLUME and BASIS-vectors are now :
  energy-cutoff  :      193.58
  volume of cell :      234.45
      direct lattice vectors                 reciprocal lattice vectors
     4.113366550  0.000000000  0.000000000     0.243109868  0.140359548  0.000000000
    -2.056683275  3.562279927  0.000000000     0.000000000  0.280719096  0.000000000
     0.000000000  0.000000000 16.000000000     0.000000000  0.000000000  0.062500000

  length of vectors
     4.113366550  4.113366550 16.000000000     0.280719096  0.280719096  0.062500000

 FORCES acting on ions
    electron-ion (+dipol)            ewald-force                    non-local-force                 convergence-correction
   -.137E-06 0.138E-06 0.944E+02   0.566E-09 -.102E-08 -.102E+03   -.139E-16 0.000E+00 0.754E+01   -.159E-06 0.917E-07 -.325E-02
   0.142E-06 -.139E-06 -.944E+02   -.566E-09 0.102E-08 0.102E+03   -.139E-16 0.000E+00 -.754E+01   0.159E-06 -.917E-07 0.325E-02
   0.523E-08 -.112E-08 -.257E-11   0.708E-15 0.320E-14 0.000E+00   -.278E-16 0.000E+00 0.000E+00   -.131E-12 0.265E-13 -.218E-13

 POSITION                                       TOTAL-FORCE (eV/Angst)
      2.05668      1.18743      7.17094         0.000000      0.000000      0.123668
      0.00000      2.37485      8.82906        -0.000000      0.000000     -0.123668
    total drift:                                0.000000     -0.000000     -0.000000

  FREE ENERGIE OF THE ION-ELECTRON SYSTEM (eV)
  free  energy   TOTEN  =        -8.11640883 eV

  energy  without entropy=       -8.11640883  energy(sigma->0) =       -8.11640883

 Linear response reoptimize wavefunctions
 Linear response G [H, r] |phi>, progress :
  Direction:   1

----------------------------------------- Iteration    1(   1)  ---------------------------------------

  free energy    TOTEN  =       -44.39569169 eV

[...]

 Linear response G [H, r] |phi>, progress :
  Direction:   2

[...]

 Linear response G [H, r] |phi>, progress :
  Direction:   3

[...]

  free energy    TOTEN  =       -56.05709377 eV

[...]

 Linear response to external field (no local field effect), progress :
  Direction:   1
  LATTYP: Found a hexagonal cell.
 ALAT       =     4.1133665497
 C/A-ratio  =     3.8897578922

[...]

The dynamic configuration has the point symmetry C_2 .

[...]

 Free energy of the ion-electron system (eV)
  -Hartree energ DENC   =         0.00000000
  -V(xc)+E(xc)   XCENC  =         0.00000000
  PAW double counting   =         0.00000000        0.00000000
  entropy T*S    EENTRO =         0.00000000
  eigenvalues    EBANDS =        -2.63477713
  free energy    TOTEN  =        -2.63477713 eV

  energy without entropy =       -2.63477713

[...]

 change of polarisation eV/A/(eV/A) component  1 :     5.857    -2.485    -0.156
 dielectric tensor                  component  1 :     5.521    -1.918    -0.120

[...]

The dynamic configuration has the point symmetry C_1h.

[...]

 Linear response to external field (no local field effect), progress :
  Direction:   3
  LATTYP: Found a hexagonal cell.
 ALAT       =     4.1133665497
 C/A-ratio  =     3.8897578922

[...]

The dynamic configuration has the point symmetry C_3v.

[...]

 HEAD OF MICROSCOPIC STATIC DIELECTRIC TENSOR (INDEPENDENT PARTICLE, excluding Hartree and local field effects)
           6.112255    -0.000000     0.000000
          -0.000000     6.112255    -0.000000
           0.000000    -0.000000     3.066537

 Linear response to external field, progress :
  Direction:   1
  LATTYP: Found a hexagonal cell.
 ALAT       =     4.1133665497
 C/A-ratio  =     3.8897578922

[...]

The dynamic configuration has the point symmetry C_2 .

[...]

 PIEZOELECTRIC TENSOR FIELD DIRECTION 1  (e Angst)
     0.00499  0.00000  0.00000           ( -0.00002  0.00000  0.00000)
     0.00000 -0.00136  0.00034           (  0.00000 -0.00003 -0.00001)
     0.00000  0.00034 -0.00117           (  0.00000 -0.00001  0.00002)

 PIEZOELECTRIC TENSOR FIELD DIRECTION 1  (C/m^2)
     0.00034  0.00000  0.00000
     0.00000 -0.00009  0.00002
     0.00000  0.00002 -0.00008

      POSITION         DIRECTION 1           BORN EFFECTIVE CHARGE    (rigid.aug.   ionic)
      2.05668      1.18743      7.17094    -0.03821 -0.00030  0.00093 (  0.81263  5.00000)
      0.00000      2.37485      8.82906    -0.03821  0.00030 -0.00093 (  0.81263  5.00000)
    total drift (improves with k-points):  -0.07641  0.00000  0.00000

[...]

The dynamic configuration has the point symmetry C_1h.

[...]

 Linear response to external field, progress :
  Direction:   3
  LATTYP: Found a hexagonal cell.
 ALAT       =     4.1133665497
 C/A-ratio  =     3.8897578922

[...]

The dynamic configuration has the point symmetry C_3v.

[...]

----------------------------------------- Iteration    3(  12)  ---------------------------------------

 Broyden mixing:
  rms(total) = 0.95115E-05    rms(broyden)= 0.95061E-05
  rms(prec ) = 0.11073E-04
  weight for this iteration     100.00

 eigenvalues of (default mixing * dielectric matrix)
  average eigenvalue GAMMA=   4.2426
 10.0991  8.0426  6.6394  6.6394  5.5894  1.4190  1.0218  0.9843  0.9954  0.9954

 Free energy of the ion-electron system (eV)
  -Hartree energ DENC   =        -0.19507795
  -V(xc)+E(xc)   XCENC  =         0.01000299
  PAW double counting   =         0.02763355       -0.02750777
  entropy T*S    EENTRO =         0.00000000
  eigenvalues    EBANDS =        -0.08770393
  free energy    TOTEN  =        -0.27265312 eV

  energy without entropy =       -0.27265312

------------------------ aborting loop because EDIFF is reached ----------------------------------------

 change of polarisation eV/A/(eV/A) component  3 :    -0.043     0.000     0.515
 dielectric tensor                  component  3 :    -0.033     0.000     1.397

 PIEZOELECTRIC TENSOR FIELD DIRECTION 3  (e Angst)
    -0.00038  0.00000  0.00000           ( -0.00000  0.00000  0.00000)
     0.00000 -0.00038  0.00000           (  0.00000 -0.00000  0.00000)
     0.00000  0.00000  0.00031           (  0.00000  0.00000  0.00000)

 PIEZOELECTRIC TENSOR FIELD DIRECTION 3  (C/m^2)
    -0.00003  0.00000  0.00000
     0.00000 -0.00003  0.00000
     0.00000  0.00000  0.00002

      POSITION         DIRECTION 3           BORN EFFECTIVE CHARGE    (rigid.aug.   ionic)
      2.05668      1.18743      7.17094     0.00000 -0.00000  0.00013 (  0.81263  5.00000)
      0.00000      2.37485      8.82906     0.00000 -0.00000  0.00052 (  0.81263  5.00000)
    total drift (improves with k-points):   0.00000 -0.00000  0.00065

[...]

 MACROSCOPIC STATIC DIELECTRIC TENSOR (including local field effects in DFT)
           5.742751     0.000000     0.000000
           0.000000     5.742751    -0.000000
          -0.000000     0.000000     1.397387

  LATTYP: Found a hexagonal cell.
 ALAT       =     4.1133665497
 C/A-ratio  =     3.8897578922

  Lattice vectors:

 A1 = (   4.1133665497,   0.0000000000,   0.0000000000)
 A2 = (  -2.0566832748,   3.5622799271,   0.0000000000)
 A3 = (   0.0000000000,   0.0000000000,  16.0000000000)

Analysis of symmetry for initial positions (statically):
 Subroutine PRICEL returns:
 Original cell was already a primitive cell.

[...]

The static configuration has the point symmetry D_3d.

Analysis of symmetry for dynamics (positions and initial velocities):
 Subroutine PRICEL returns:
 Original cell was already a primitive cell.

 Routine SETGRP: Setting up the symmetry group for a
 hexagonal supercell.

 Subroutine GETGRP returns: Found 12 space group operations
 (whereof 12 operations were pure point group operations)
 out of a pool of 24 trial point group operations.

The dynamic configuration has the point symmetry D_3d.

 Subroutine INISYM returns: Found 12 space group operations
 (whereof 12 operations are pure point group operations),
 and found     1 'primitive' translations

 KPOINTS: kpoints

Automatic generation of k-mesh.
 Grid dimensions read from file:
 generate k-points for:   11   11    1

 Generating k-lattice:

  Cartesian coordinates                     Fractional coordinates (reciprocal lattice)
     0.022100897  0.012759959  0.000000000     0.090909091  0.000000000  0.000000000
     0.000000000  0.025519918  0.000000000     0.000000000  0.090909091  0.000000000
     0.000000000  0.000000000  0.062500000     0.000000000  0.000000000  1.000000000

  Length of vectors
     0.025519918  0.025519918  0.062500000

  Shift w.r.t. Gamma in fractional coordinates (k-lattice)
     0.000000000  0.000000000  0.000000000

 Subroutine IBZKPT returns following result:

 Found     16 irreducible k-points:

 Following reciprocal coordinates:
            Coordinates               Weight
  0.000000  0.000000  0.000000      1.000000
  0.090909  0.000000  0.000000      6.000000
  0.181818  0.000000  0.000000      6.000000
  0.272727  0.000000  0.000000      6.000000
  0.363636  0.000000  0.000000      6.000000
  0.454545  0.000000  0.000000      6.000000
  0.090909  0.090909  0.000000      6.000000
  0.181818  0.090909  0.000000     12.000000
  0.272727  0.090909  0.000000     12.000000
  0.363636  0.090909  0.000000     12.000000
  0.454545  0.090909  0.000000      6.000000
  0.181818  0.181818  0.000000      6.000000
  0.272727  0.181818  0.000000     12.000000
  0.363636  0.181818  0.000000     12.000000
  0.272727  0.272727  0.000000      6.000000
  0.363636  0.272727  0.000000      6.000000

 Following cartesian coordinates:
            Coordinates               Weight
  0.000000  0.000000  0.000000      1.000000
  0.022101  0.012760  0.000000      6.000000
  0.044202  0.025520  0.000000      6.000000
  0.066303  0.038280  0.000000      6.000000
  0.088404  0.051040  0.000000      6.000000
  0.110504  0.063800  0.000000      6.000000
  0.022101  0.038280  0.000000      6.000000
  0.044202  0.051040  0.000000     12.000000
  0.066303  0.063800  0.000000     12.000000
  0.088404  0.076560  0.000000     12.000000
  0.110504  0.089320  0.000000      6.000000
  0.044202  0.076560  0.000000      6.000000
  0.066303  0.089320  0.000000     12.000000
  0.088404  0.102080  0.000000     12.000000
  0.066303  0.114840  0.000000      6.000000
  0.088404  0.127600  0.000000      6.000000

 MACROSCOPIC STATIC DIELECTRIC TENSOR (including local field effects in DFT)
           5.742751     0.000000     0.000000
           0.000000     5.742751    -0.000000
          -0.000000     0.000000     1.397387

 PIEZOELECTRIC TENSOR (including local field effects)  for field in x, y, z        (e  Angst)
          XX          YY          ZZ          XY          YZ          ZX
  x     0.00000     0.00000     0.00000     0.00000     0.00000     0.00000
  y     0.00000     0.00000     0.00000     0.00000     0.00000     0.00000
  z     0.00000     0.00000     0.00000     0.00000     0.00000     0.00000

 PIEZOELECTRIC TENSOR (including local field effects)  for field in x, y, z        (C/m^2)
          XX          YY          ZZ          XY          YZ          ZX
  x     0.00000     0.00000     0.00000     0.00000     0.00000     0.00000
  y     0.00000     0.00000     0.00000     0.00000     0.00000     0.00000
  z     0.00000     0.00000     0.00000     0.00000     0.00000     0.00000

 BORN EFFECTIVE CHARGES (including local field effects) (in |e|, cummulative output)
 ion    1
    1     0.00000     0.00000     0.00000
    2     0.00000     0.00000     0.00000
    3     0.00000     0.00000     0.00000
 ion    2
    1     0.00000     0.00000     0.00000
    2     0.00000     0.00000     0.00000
    3     0.00000     0.00000     0.00000

 total charge

# of ion       s       p       d       f       tot
    1        1.582   1.840   0.077   0.012   3.511
    2        1.582   1.840   0.077   0.012   3.511
tot          3.163   3.680   0.155   0.024   7.022