 vasp.6.4.2 20Jul23 (build Nov 14 2023 12:59:38) complex

 executed on             LinuxIFC date 2023.12.29  16:12:35

 INCAR:
   ENCUT = 193.577625
   ALGO = Normal
   NELM = 200
   NELMIN = 6
   NELMDL = -12
   EDIFF = 1.0E-6
   AMIX = 0.1
   BMIX = 0.0001
   PREC = Accurate
   IVDW = 0
   ISPIN = 1
   ADDGRID = .TRUE.
   LASPH = .TRUE.
   LREAL = .FALSE.
   LEPSILON = .TRUE.
   ISMEAR = 0
   SIGMA = 0.01
   LORBIT = 10
   NEDOS = 6001
   NWRITE = 3
   LWAVE = .FALSE.
   LCHARG = .FALSE.
   ICHARG = 2
   LELF = .FALSE.
   LVTOT = .FALSE.
   LPLANE = .TRUE.

 POTCAR:    PAW_PBE Sb_GW 21Mar2012
|           W    W    AA    RRRRR   N    N  II  N    N   GGGG   !!!           |
|           W    W   A  A   R    R  NN   N  II  NN   N  G    G  !!!           |
|           W    W  A    A  R    R  N N  N  II  N N  N  G       !!!           |
|           W WW W  AAAAAA  RRRRR   N  N N  II  N  N N  G  GGG   !            |
|           WW  WW  A    A  R   R   N   NN  II  N   NN  G    G                |
|           W    W  A    A  R    R  N    N  II  N    N   GGGG   !!!           |
|     For optimal performance we recommend to set                             |
|       NCORE = 2 up to number-of-cores-per-socket                            |
|     This setting can greatly improve the performance of VASP for DFT.       |
|     The default, NCORE=1 might be grossly inefficient on modern             |
|     multi-core architectures or massively parallel machines. Do your        |
|     Unfortunately you need to use the default for GW and RPA                |
|     calculations (for HF NCORE is supported but not extensively tested      |
|     yet).                                                                   |

   TITEL  = PAW_PBE Sb_GW 21Mar2012
   POMASS =  121.750; ZVAL   =    5.000    mass and valenz
   ENMAX  =  172.069; ENMIN  =  129.052 eV

  PAW_PBE Sb_GW 21Mar2012               :

 POSCAR: OUTCAR.0002.-1.out 1.0e-02
  positions in cartesian coordinates
 exchange correlation table for  LEXCH =        8
   RHO(1)=    0.500       N(1)  =     2000
   RHO(2)=  100.500       N(2)  =     4000

 ion  position               nearest neighbor table
   1  0.668  0.335  0.449-   2 2.88   2 2.88   2 2.90
   2  0.332  0.665  0.551-   1 2.88   1 2.88   1 2.90

  LATTYP: Found a hexagonal cell.
 ALAT       =     4.1133665497
 C/A-ratio  =     3.8897578922

  Lattice vectors:

 A1 = (   4.1133665497,   0.0000000000,   0.0000000000)
 A2 = (  -2.0566832748,   3.5622799271,   0.0000000000)
 A3 = (   0.0000000000,   0.0000000000,  16.0000000000)

Analysis of symmetry for initial positions (statically):
 Subroutine PRICEL returns:
 Original cell was already a primitive cell.

 Routine SETGRP: Setting up the symmetry group for a
 hexagonal supercell.

 Subroutine GETGRP returns: Found  2 space group operations
 (whereof  2 operations were pure point group operations)
 out of a pool of 24 trial point group operations.

The static configuration has the point symmetry S_2 .

Analysis of symmetry for dynamics (positions and initial velocities):
 Subroutine PRICEL returns:
 Original cell was already a primitive cell.

[...]

The dynamic configuration has the point symmetry S_2 .

 Subroutine INISYM returns: Found  2 space group operations
 (whereof  2 operations are pure point group operations),
 and found     1 'primitive' translations

 irot  :   1
 isymop:   1   0   0
           0   1   0
           0   0   1

 gtrans:     0.0000000     0.0000000     0.0000000

 ptrans:     0.0000000     0.0000000     0.0000000

 rotmap:
 (   1->   1)  (   2->   2)

 irot  :   2
 isymop:  -1   0   0
           0  -1   0
           0   0  -1

 gtrans:     0.0000000     0.0000000     0.0000000

 ptrans:     0.0000000     0.0000000     0.0000000

 rotmap:
 (   1->   2)  (   2->   1)

                                     Primitive cell

  volume of cell :     234.4474

  direct lattice vectors                    reciprocal lattice vectors
     4.113366550  0.000000000  0.000000000     0.243109868  0.140359548  0.000000000
    -2.056683275  3.562279927  0.000000000     0.000000000  0.280719096  0.000000000
     0.000000000  0.000000000 16.000000000     0.000000000  0.000000000  0.062500000

  length of vectors
     4.113366550  4.113366550 16.000000000     0.280719096  0.280719096  0.062500000

  position of ions in fractional coordinates (direct lattice)
     0.667700976  0.335317721  0.448625398
     0.332299024  0.664682279  0.551374602

  ion indices of the primitive-cell ions
   primitive index   ion index
                 1           1
                 2           2

 KPOINTS: kpoints

Automatic generation of k-mesh.
 Grid dimensions read from file:
 generate k-points for:   11   11    1

 Generating k-lattice:

  Cartesian coordinates                     Fractional coordinates (reciprocal lattice)
     0.022100897  0.012759959  0.000000000     0.090909091  0.000000000  0.000000000
     0.000000000  0.025519918  0.000000000     0.000000000  0.090909091  0.000000000
     0.000000000  0.000000000  0.062500000     0.000000000  0.000000000  1.000000000

  Length of vectors
     0.025519918  0.025519918  0.062500000

  Shift w.r.t. Gamma in fractional coordinates (k-lattice)
     0.000000000  0.000000000  0.000000000

 Subroutine IBZKPT returns following result:

 Found     61 irreducible k-points:

 Following reciprocal coordinates:
            Coordinates               Weight
  0.000000  0.000000  0.000000      1.000000
  0.090909  0.000000  0.000000      2.000000
  0.000000  0.090909  0.000000      2.000000
 -0.090909  0.090909  0.000000      2.000000
  0.181818  0.000000  0.000000      2.000000
  0.000000  0.181818  0.000000      2.000000
 -0.181818  0.181818  0.000000      2.000000
  0.272727  0.000000  0.000000      2.000000
  0.000000  0.272727  0.000000      2.000000
 -0.272727  0.272727  0.000000      2.000000
  0.363636  0.000000  0.000000      2.000000
  0.000000  0.363636  0.000000      2.000000
 -0.363636  0.363636  0.000000      2.000000
  0.454545  0.000000  0.000000      2.000000
  0.000000  0.454545  0.000000      2.000000
 -0.454545  0.454545  0.000000      2.000000
  0.090909  0.090909  0.000000      2.000000
 -0.090909  0.181818  0.000000      2.000000
 -0.181818  0.090909  0.000000      2.000000
  0.181818  0.090909  0.000000      2.000000
 -0.090909  0.272727  0.000000      2.000000
 -0.272727  0.181818  0.000000      2.000000
 -0.181818  0.272727  0.000000      2.000000
  0.090909  0.181818  0.000000      2.000000
  0.272727 -0.090909  0.000000      2.000000
  0.272727  0.090909  0.000000      2.000000
 -0.090909  0.363636  0.000000      2.000000
 -0.363636  0.272727  0.000000      2.000000
 -0.272727  0.363636  0.000000      2.000000
  0.090909  0.272727  0.000000      2.000000
  0.363636 -0.090909  0.000000      2.000000
  0.363636  0.090909  0.000000      2.000000
 -0.090909  0.454545  0.000000      2.000000
 -0.454545  0.363636  0.000000      2.000000
 -0.363636  0.454545  0.000000      2.000000
  0.090909  0.363636  0.000000      2.000000
  0.454545 -0.090909  0.000000      2.000000
  0.454545  0.090909  0.000000      2.000000
 -0.090909 -0.454545  0.000000      2.000000
  0.454545  0.454545  0.000000      2.000000
  0.181818  0.181818  0.000000      2.000000
 -0.181818  0.363636  0.000000      2.000000
 -0.363636  0.181818  0.000000      2.000000
  0.272727  0.181818  0.000000      2.000000
 -0.181818  0.454545  0.000000      2.000000
 -0.454545  0.272727  0.000000      2.000000
 -0.272727  0.454545  0.000000      2.000000
  0.181818  0.272727  0.000000      2.000000
  0.454545 -0.181818  0.000000      2.000000
  0.363636  0.181818  0.000000      2.000000
 -0.181818 -0.454545  0.000000      2.000000
  0.454545  0.363636  0.000000      2.000000
 -0.363636 -0.454545  0.000000      2.000000
  0.181818  0.363636  0.000000      2.000000
 -0.454545 -0.181818  0.000000      2.000000
  0.272727  0.272727  0.000000      2.000000
 -0.272727 -0.454545  0.000000      2.000000
  0.454545  0.272727  0.000000      2.000000
  0.363636  0.272727  0.000000      2.000000
 -0.272727 -0.363636  0.000000      2.000000
  0.363636  0.363636  0.000000      2.000000

 Following cartesian coordinates:
            Coordinates               Weight
  0.000000  0.000000  0.000000      1.000000
  0.022101  0.012760  0.000000      2.000000
  0.000000  0.025520  0.000000      2.000000
 -0.022101  0.012760  0.000000      2.000000
  0.044202  0.025520  0.000000      2.000000
  0.000000  0.051040  0.000000      2.000000
 -0.044202  0.025520  0.000000      2.000000
  0.066303  0.038280  0.000000      2.000000
  0.000000  0.076560  0.000000      2.000000
 -0.066303  0.038280  0.000000      2.000000
  0.088404  0.051040  0.000000      2.000000
  0.000000  0.102080  0.000000      2.000000
 -0.088404  0.051040  0.000000      2.000000
  0.110504  0.063800  0.000000      2.000000
  0.000000  0.127600  0.000000      2.000000
 -0.110504  0.063800  0.000000      2.000000
  0.022101  0.038280  0.000000      2.000000
 -0.022101  0.038280  0.000000      2.000000
 -0.044202  0.000000  0.000000      2.000000
  0.044202  0.051040  0.000000      2.000000
 -0.022101  0.063800  0.000000      2.000000
 -0.066303  0.012760  0.000000      2.000000
 -0.044202  0.051040  0.000000      2.000000
  0.022101  0.063800  0.000000      2.000000
  0.066303  0.012760  0.000000      2.000000
  0.066303  0.063800  0.000000      2.000000
 -0.022101  0.089320  0.000000      2.000000
 -0.088404  0.025520  0.000000      2.000000
 -0.066303  0.063800  0.000000      2.000000
  0.022101  0.089320  0.000000      2.000000
  0.088404  0.025520  0.000000      2.000000
  0.088404  0.076560  0.000000      2.000000
 -0.022101  0.114840  0.000000      2.000000
 -0.110504  0.038280  0.000000      2.000000
 -0.088404  0.076560  0.000000      2.000000
  0.022101  0.114840  0.000000      2.000000
  0.110504  0.038280  0.000000      2.000000
  0.110504  0.089320  0.000000      2.000000
 -0.022101 -0.140360  0.000000      2.000000
  0.110504  0.191399  0.000000      2.000000
  0.044202  0.076560  0.000000      2.000000
 -0.044202  0.076560  0.000000      2.000000
 -0.088404  0.000000  0.000000      2.000000
  0.066303  0.089320  0.000000      2.000000
 -0.044202  0.102080  0.000000      2.000000
 -0.110504  0.012760  0.000000      2.000000
 -0.066303  0.089320  0.000000      2.000000
  0.044202  0.102080  0.000000      2.000000
  0.110504  0.012760  0.000000      2.000000
  0.088404  0.102080  0.000000      2.000000
 -0.044202 -0.153120  0.000000      2.000000
  0.110504  0.165879  0.000000      2.000000
 -0.088404 -0.178639  0.000000      2.000000
  0.044202  0.127600  0.000000      2.000000
 -0.110504 -0.114840  0.000000      2.000000
  0.066303  0.114840  0.000000      2.000000
 -0.066303 -0.165879  0.000000      2.000000
  0.110504  0.140360  0.000000      2.000000
  0.088404  0.127600  0.000000      2.000000
 -0.066303 -0.140360  0.000000      2.000000
  0.088404  0.153120  0.000000      2.000000

 Subroutine IBZKPT_HF returns following result:

 Found    121 k-points in 1st BZ
 the following    121 k-points will be used (e.g. in the exchange kernel)
 Following reciprocal coordinates:   # in IRBZ
[...]
 total charge-density along one line

------------------------ aborting loop because EDIFF is reached ----------------------------------------

 total charge

# of ion       s       p       d       f       tot
    1        1.581   1.846   0.079   0.012   3.518
    2        1.581   1.846   0.079   0.012   3.518
tot          3.162   3.692   0.158   0.025   7.037

  FORCE on cell =-STRESS in cart. coord.  units (eV):
  Direction    XX          YY          ZZ          XY          YZ          ZX
  Alpha Z     2.97593     2.97593     2.97593
  Ewald     422.62195   421.49643  -630.19782     0.01369     0.37196     0.00946
  Hartree   461.84294   461.67050  -450.64550     0.00209     0.03071     0.00078
  E(xc)     -39.93793   -39.91994   -40.35361    -0.00022    -0.01312    -0.00033
  Local   -1009.06979 -1007.86549   952.07020    -0.01462    -0.38121    -0.00966
  n-local   128.85041   128.68135   130.24624     0.00206     0.10578     0.00268
  augment   -32.94103   -32.91354   -33.42166    -0.00034    -0.02279    -0.00056
  Kinetic    65.70074    65.81195    69.29441    -0.00135     0.03980     0.00096
  Fock        0.00000     0.00000     0.00000     0.00000     0.00000     0.00000
  Total       0.04323    -0.06281    -0.03181     0.00132     0.13113     0.00332
  in kB       0.29540    -0.42921    -0.21739     0.00903     0.89614     0.02269

 VOLUME and BASIS-vectors are now :
  energy-cutoff  :      193.58
  volume of cell :      234.45
      direct lattice vectors                 reciprocal lattice vectors
     4.113366550  0.000000000  0.000000000     0.243109868  0.140359548  0.000000000
    -2.056683275  3.562279927  0.000000000     0.000000000  0.280719096  0.000000000
     0.000000000  0.000000000 16.000000000     0.000000000  0.000000000  0.062500000

  length of vectors
     4.113366550  4.113366550 16.000000000     0.280719096  0.280719096  0.062500000

 FORCES acting on ions
    electron-ion (+dipol)            ewald-force                    non-local-force                 convergence-correction
   0.427E-02 0.167E+00 0.940E+02   -.576E-02 -.226E+00 -.102E+03   -.531E-03 -.204E-01 0.755E+01   0.401E-05 0.267E-04 -.310E-02
   -.427E-02 -.167E+00 -.940E+02   0.576E-02 0.226E+00 0.102E+03   0.531E-03 0.204E-01 -.755E+01   -.401E-05 -.267E-04 0.310E-02
   -.942E-08 -.112E-08 0.577E-11   0.708E-15 0.322E-14 0.000E+00   0.000E+00 0.000E+00 0.000E+00   0.262E-12 0.334E-13 -.192E-13

 POSITION                                       TOTAL-FORCE (eV/Angst)
      2.05686      1.19450      7.17801        -0.002017     -0.079725     -0.005100
     -0.00017      2.36778      8.82199         0.002017      0.079725      0.005100
    total drift:                               -0.000000     -0.000000      0.000000

  FREE ENERGIE OF THE ION-ELECTRON SYSTEM (eV)
  free  energy   TOTEN  =        -8.11670891 eV

  energy  without entropy=       -8.11670891  energy(sigma->0) =       -8.11670891

 Linear response reoptimize wavefunctions
 Linear response G [H, r] |phi>, progress :
  Direction:   1

----------------------------------------- Iteration    1(   1)  ---------------------------------------

  free energy    TOTEN  =       -46.19976817 eV

[...]

 Linear response G [H, r] |phi>, progress :
  Direction:   2

[...]

 Linear response G [H, r] |phi>, progress :
  Direction:   3

[...]

  free energy    TOTEN  =       -56.12485771 eV

[...]

 Linear response to external field (no local field effect), progress :
  Direction:   1
  LATTYP: Found a hexagonal cell.
 ALAT       =     4.1133665497
 C/A-ratio  =     3.8897578922

[...]

 Free energy of the ion-electron system (eV)
  -Hartree energ DENC   =         0.00000000
  -V(xc)+E(xc)   XCENC  =         0.00000000
  PAW double counting   =         0.00000000        0.00000000
  entropy T*S    EENTRO =         0.00000000
  eigenvalues    EBANDS =        -2.94459787
  free energy    TOTEN  =        -2.94459787 eV

  energy without entropy =       -2.94459787

[...]

 change of polarisation eV/A/(eV/A) component  1 :     6.499    -0.001    -0.001
 dielectric tensor                  component  1 :     6.016    -0.001    -0.001

[...]

 Linear response to external field (no local field effect), progress :
  Direction:   3
  LATTYP: Found a hexagonal cell.
 ALAT       =     4.1133665497
 C/A-ratio  =     3.8897578922

[...]

 HEAD OF MICROSCOPIC STATIC DIELECTRIC TENSOR (INDEPENDENT PARTICLE, excluding Hartree and local field effects)
           6.015739    -0.001035    -0.000662
          -0.001035     6.106344    -0.027063
          -0.000662    -0.027063     3.033410

 Linear response to external field, progress :
  Direction:   1
  LATTYP: Found a hexagonal cell.
 ALAT       =     4.1133665497
 C/A-ratio  =     3.8897578922

[...]

 PIEZOELECTRIC TENSOR FIELD DIRECTION 1  (e Angst)
    -0.00043  0.00269  0.00126           ( -0.00000  0.00001  0.00004)
     0.00269  0.00006 -0.00027           (  0.00001 -0.00000 -0.00000)
     0.00126 -0.00027  0.00006           (  0.00004 -0.00000  0.00000)

 PIEZOELECTRIC TENSOR FIELD DIRECTION 1  (C/m^2)
    -0.00003  0.00018  0.00009
     0.00018  0.00000 -0.00002
     0.00009 -0.00002  0.00000

      POSITION         DIRECTION 1           BORN EFFECTIVE CHARGE    (rigid.aug.   ionic)
      2.05686      1.19450      7.17801    -0.03635  0.00005 -0.00006 (  0.81282  5.00000)
     -0.00017      2.36778      8.82199    -0.03701 -0.00002  0.00006 (  0.81282  5.00000)
    total drift (improves with k-points):  -0.07336  0.00003 -0.00000

[...]

 Linear response to external field, progress :
  Direction:   3
  LATTYP: Found a hexagonal cell.
 ALAT       =     4.1133665497
 C/A-ratio  =     3.8897578922

[...]

----------------------------------------- Iteration    3(  12)  ---------------------------------------

 Broyden mixing:
  rms(total) = 0.96257E-05    rms(broyden)= 0.96211E-05
  rms(prec ) = 0.11268E-04
  weight for this iteration     100.00

 eigenvalues of (default mixing * dielectric matrix)
  average eigenvalue GAMMA=   4.2390
 10.1307  7.6960  6.7819  6.7819  5.5633  1.4383  1.0206  0.9874  0.9874  1.0024

 Free energy of the ion-electron system (eV)
  -Hartree energ DENC   =        -0.19400859
  -V(xc)+E(xc)   XCENC  =         0.00999020
  PAW double counting   =         0.02745117       -0.02732432
  entropy T*S    EENTRO =         0.00000000
  eigenvalues    EBANDS =        -0.08772726
  free energy    TOTEN  =        -0.27161879 eV

  energy without entropy =       -0.27161879

------------------------ aborting loop because EDIFF is reached ----------------------------------------

 change of polarisation eV/A/(eV/A) component  3 :    -0.000    -0.002     0.513
 dielectric tensor                  component  3 :    -0.000    -0.002     1.396

 PIEZOELECTRIC TENSOR FIELD DIRECTION 3  (e Angst)
     0.00136 -0.00016 -0.00024           (  0.00001 -0.00000 -0.00000)
    -0.00016 -0.00162  0.00147           ( -0.00000 -0.00001  0.00001)
    -0.00024  0.00147  0.00010           ( -0.00000  0.00001  0.00000)

 PIEZOELECTRIC TENSOR FIELD DIRECTION 3  (C/m^2)
     0.00009 -0.00001 -0.00002
    -0.00001 -0.00011  0.00010
    -0.00002  0.00010  0.00001

      POSITION         DIRECTION 3           BORN EFFECTIVE CHARGE    (rigid.aug.   ionic)
      2.05686      1.19450      7.17801     0.00012 -0.00063  0.00037 (  0.81282  5.00000)
     -0.00017      2.36778      8.82199    -0.00012  0.00063  0.00050 (  0.81282  5.00000)
    total drift (improves with k-points):  -0.00000  0.00000  0.00087

[...]

 MACROSCOPIC STATIC DIELECTRIC TENSOR (including local field effects in DFT)
           5.650370    -0.001007    -0.000046
          -0.001007     5.736882    -0.001829
          -0.000046    -0.001831     1.395816

  LATTYP: Found a hexagonal cell.
 ALAT       =     4.1133665497
 C/A-ratio  =     3.8897578922

  Lattice vectors:

 A1 = (   4.1133665497,   0.0000000000,   0.0000000000)
 A2 = (  -2.0566832748,   3.5622799271,   0.0000000000)
 A3 = (   0.0000000000,   0.0000000000,  16.0000000000)

Analysis of symmetry for initial positions (statically):
 Subroutine PRICEL returns:
 Original cell was already a primitive cell.

[...]

The static configuration has the point symmetry S_2 .

Analysis of symmetry for dynamics (positions and initial velocities):
 Subroutine PRICEL returns:
 Original cell was already a primitive cell.

 Routine SETGRP: Setting up the symmetry group for a
 hexagonal supercell.

 Subroutine GETGRP returns: Found  2 space group operations
 (whereof  2 operations were pure point group operations)
 out of a pool of 24 trial point group operations.

The dynamic configuration has the point symmetry S_2 .

 Subroutine INISYM returns: Found  2 space group operations
 (whereof  2 operations are pure point group operations),
 and found     1 'primitive' translations

 KPOINTS: kpoints

Automatic generation of k-mesh.
 Grid dimensions read from file:
 generate k-points for:   11   11    1

 Generating k-lattice:

  Cartesian coordinates                     Fractional coordinates (reciprocal lattice)
     0.022100897  0.012759959  0.000000000     0.090909091  0.000000000  0.000000000
     0.000000000  0.025519918  0.000000000     0.000000000  0.090909091  0.000000000
     0.000000000  0.000000000  0.062500000     0.000000000  0.000000000  1.000000000

  Length of vectors
     0.025519918  0.025519918  0.062500000

  Shift w.r.t. Gamma in fractional coordinates (k-lattice)
     0.000000000  0.000000000  0.000000000

 Subroutine IBZKPT returns following result:

 Found     61 irreducible k-points:

 Following reciprocal coordinates:
            Coordinates               Weight
  0.000000  0.000000  0.000000      1.000000
  0.090909  0.000000  0.000000      2.000000
  0.000000  0.090909  0.000000      2.000000
 -0.090909  0.090909  0.000000      2.000000
  0.181818  0.000000  0.000000      2.000000
  0.000000  0.181818  0.000000      2.000000
 -0.181818  0.181818  0.000000      2.000000
  0.272727  0.000000  0.000000      2.000000
  0.000000  0.272727  0.000000      2.000000
 -0.272727  0.272727  0.000000      2.000000
  0.363636  0.000000  0.000000      2.000000
  0.000000  0.363636  0.000000      2.000000
 -0.363636  0.363636  0.000000      2.000000
  0.454545  0.000000  0.000000      2.000000
  0.000000  0.454545  0.000000      2.000000
 -0.454545  0.454545  0.000000      2.000000
  0.090909  0.090909  0.000000      2.000000
 -0.090909  0.181818  0.000000      2.000000
 -0.181818  0.090909  0.000000      2.000000
  0.181818  0.090909  0.000000      2.000000
 -0.090909  0.272727  0.000000      2.000000
 -0.272727  0.181818  0.000000      2.000000
 -0.181818  0.272727  0.000000      2.000000
  0.090909  0.181818  0.000000      2.000000
  0.272727 -0.090909  0.000000      2.000000
  0.272727  0.090909  0.000000      2.000000
 -0.090909  0.363636  0.000000      2.000000
 -0.363636  0.272727  0.000000      2.000000
 -0.272727  0.363636  0.000000      2.000000
  0.090909  0.272727  0.000000      2.000000
  0.363636 -0.090909  0.000000      2.000000
  0.363636  0.090909  0.000000      2.000000
 -0.090909  0.454545  0.000000      2.000000
 -0.454545  0.363636  0.000000      2.000000
 -0.363636  0.454545  0.000000      2.000000
  0.090909  0.363636  0.000000      2.000000
  0.454545 -0.090909  0.000000      2.000000
  0.454545  0.090909  0.000000      2.000000
 -0.090909 -0.454545  0.000000      2.000000
  0.454545  0.454545  0.000000      2.000000
  0.181818  0.181818  0.000000      2.000000
 -0.181818  0.363636  0.000000      2.000000
 -0.363636  0.181818  0.000000      2.000000
  0.272727  0.181818  0.000000      2.000000
 -0.181818  0.454545  0.000000      2.000000
 -0.454545  0.272727  0.000000      2.000000
 -0.272727  0.454545  0.000000      2.000000
  0.181818  0.272727  0.000000      2.000000
  0.454545 -0.181818  0.000000      2.000000
  0.363636  0.181818  0.000000      2.000000
 -0.181818 -0.454545  0.000000      2.000000
  0.454545  0.363636  0.000000      2.000000
 -0.363636 -0.454545  0.000000      2.000000
  0.181818  0.363636  0.000000      2.000000
 -0.454545 -0.181818  0.000000      2.000000
  0.272727  0.272727  0.000000      2.000000
 -0.272727 -0.454545  0.000000      2.000000
  0.454545  0.272727  0.000000      2.000000
  0.363636  0.272727  0.000000      2.000000
 -0.272727 -0.363636  0.000000      2.000000
  0.363636  0.363636  0.000000      2.000000

 Following cartesian coordinates:
            Coordinates               Weight
  0.000000  0.000000  0.000000      1.000000
  0.022101  0.012760  0.000000      2.000000
  0.000000  0.025520  0.000000      2.000000
 -0.022101  0.012760  0.000000      2.000000
  0.044202  0.025520  0.000000      2.000000
  0.000000  0.051040  0.000000      2.000000
 -0.044202  0.025520  0.000000      2.000000
  0.066303  0.038280  0.000000      2.000000
  0.000000  0.076560  0.000000      2.000000
 -0.066303  0.038280  0.000000      2.000000
  0.088404  0.051040  0.000000      2.000000
  0.000000  0.102080  0.000000      2.000000
 -0.088404  0.051040  0.000000      2.000000
  0.110504  0.063800  0.000000      2.000000
  0.000000  0.127600  0.000000      2.000000
 -0.110504  0.063800  0.000000      2.000000
  0.022101  0.038280  0.000000      2.000000
 -0.022101  0.038280  0.000000      2.000000
 -0.044202  0.000000  0.000000      2.000000
  0.044202  0.051040  0.000000      2.000000
 -0.022101  0.063800  0.000000      2.000000
 -0.066303  0.012760  0.000000      2.000000
 -0.044202  0.051040  0.000000      2.000000
  0.022101  0.063800  0.000000      2.000000
  0.066303  0.012760  0.000000      2.000000
  0.066303  0.063800  0.000000      2.000000
 -0.022101  0.089320  0.000000      2.000000
 -0.088404  0.025520  0.000000      2.000000
 -0.066303  0.063800  0.000000      2.000000
  0.022101  0.089320  0.000000      2.000000
  0.088404  0.025520  0.000000      2.000000
  0.088404  0.076560  0.000000      2.000000
 -0.022101  0.114840  0.000000      2.000000
 -0.110504  0.038280  0.000000      2.000000
 -0.088404  0.076560  0.000000      2.000000
  0.022101  0.114840  0.000000      2.000000
  0.110504  0.038280  0.000000      2.000000
  0.110504  0.089320  0.000000      2.000000
 -0.022101 -0.140360  0.000000      2.000000
  0.110504  0.191399  0.000000      2.000000
  0.044202  0.076560  0.000000      2.000000
 -0.044202  0.076560  0.000000      2.000000
 -0.088404  0.000000  0.000000      2.000000
  0.066303  0.089320  0.000000      2.000000
 -0.044202  0.102080  0.000000      2.000000
 -0.110504  0.012760  0.000000      2.000000
 -0.066303  0.089320  0.000000      2.000000
  0.044202  0.102080  0.000000      2.000000
  0.110504  0.012760  0.000000      2.000000
  0.088404  0.102080  0.000000      2.000000
 -0.044202 -0.153120  0.000000      2.000000
  0.110504  0.165879  0.000000      2.000000
 -0.088404 -0.178639  0.000000      2.000000
  0.044202  0.127600  0.000000      2.000000
 -0.110504 -0.114840  0.000000      2.000000
  0.066303  0.114840  0.000000      2.000000
 -0.066303 -0.165879  0.000000      2.000000
  0.110504  0.140360  0.000000      2.000000
  0.088404  0.127600  0.000000      2.000000
 -0.066303 -0.140360  0.000000      2.000000
  0.088404  0.153120  0.000000      2.000000

 MACROSCOPIC STATIC DIELECTRIC TENSOR (including local field effects in DFT)
           5.650370    -0.001007    -0.000046
          -0.001007     5.736882    -0.001829
          -0.000046    -0.001831     1.395816

 PIEZOELECTRIC TENSOR (including local field effects)  for field in x, y, z        (e  Angst)
          XX          YY          ZZ          XY          YZ          ZX
  x     0.00000     0.00000     0.00000     0.00000     0.00000     0.00000
  y     0.00000     0.00000     0.00000     0.00000     0.00000     0.00000
  z     0.00000     0.00000     0.00000     0.00000     0.00000     0.00000

 PIEZOELECTRIC TENSOR (including local field effects)  for field in x, y, z        (C/m^2)
          XX          YY          ZZ          XY          YZ          ZX
  x     0.00000     0.00000     0.00000     0.00000     0.00000     0.00000
  y     0.00000     0.00000     0.00000     0.00000     0.00000     0.00000
  z     0.00000     0.00000     0.00000     0.00000     0.00000     0.00000

 BORN EFFECTIVE CHARGES (including local field effects) (in |e|, cummulative output)
 ion    1
    1     0.00000     0.00000     0.00000
    2     0.00000     0.00000     0.00000
    3     0.00000     0.00000     0.00000
 ion    2
    1     0.00000     0.00000     0.00000
    2     0.00000     0.00000     0.00000
    3     0.00000     0.00000     0.00000

 total charge

# of ion       s       p       d       f       tot
    1        1.581   1.846   0.079   0.012   3.518
    2        1.581   1.846   0.079   0.012   3.518
tot          3.162   3.692   0.158   0.025   7.037