 vasp.6.4.2 20Jul23 (build Nov 14 2023 12:59:38) complex

 executed on             LinuxIFC date 2023.12.29  16:09:13

 INCAR:
   ENCUT = 193.577625
   ALGO = Normal
   NELM = 200
   NELMIN = 6
   NELMDL = -12
   EDIFF = 1.0E-6
   AMIX = 0.1
   BMIX = 0.0001
   PREC = Accurate
   IVDW = 0
   ISPIN = 1
   ADDGRID = .TRUE.
   LASPH = .TRUE.
   LREAL = .FALSE.
   NSW = 1
   EDIFFG = -0.010
   IBRION = 8
   POTIM = 0.01
   STRESSTYPE = 2
   LEPSILON = .FALSE.
   ISMEAR = 0
   SIGMA = 0.01
   LORBIT = 10
   NEDOS = 6001
   NWRITE = 3
   LWAVE = .FALSE.
   LCHARG = .FALSE.
   ICHARG = 2
   LELF = .FALSE.
   LVTOT = .FALSE.
   LPLANE = .TRUE.

 POTCAR:    PAW_PBE Sb_GW 21Mar2012
|           W    W    AA    RRRRR   N    N  II  N    N   GGGG   !!!           |
|           W    W   A  A   R    R  NN   N  II  NN   N  G    G  !!!           |
|           W    W  A    A  R    R  N N  N  II  N N  N  G       !!!           |
|           W WW W  AAAAAA  RRRRR   N  N N  II  N  N N  G  GGG   !            |
|           WW  WW  A    A  R   R   N   NN  II  N   NN  G    G                |
|           W    W  A    A  R    R  N    N  II  N    N   GGGG   !!!           |
|     For optimal performance we recommend to set                             |
|       NCORE = 2 up to number-of-cores-per-socket                            |
|     This setting can greatly improve the performance of VASP for DFT.       |
|     The default, NCORE=1 might be grossly inefficient on modern             |
|     multi-core architectures or massively parallel machines. Do your        |
|     Unfortunately you need to use the default for GW and RPA                |
|     calculations (for HF NCORE is supported but not extensively tested      |
|     yet).                                                                   |

   TITEL  = PAW_PBE Sb_GW 21Mar2012
   POMASS =  121.750; ZVAL   =    5.000    mass and valenz
   ENMAX  =  172.069; ENMIN  =  129.052 eV

  PAW_PBE Sb_GW 21Mar2012               :

 POSCAR: pnictogen honeycomb monolayer
  positions in direct lattice
  velocities in cartesian coordinates
 exchange correlation table for  LEXCH =        8
   RHO(1)=    0.500       N(1)  =     2000
   RHO(2)=  100.500       N(2)  =     4000
|           W    W    AA    RRRRR   N    N  II  N    N   GGGG   !!!           |
|           W    W   A  A   R    R  NN   N  II  NN   N  G    G  !!!           |
|           W    W  A    A  R    R  N N  N  II  N N  N  G       !!!           |
|           W WW W  AAAAAA  RRRRR   N  N N  II  N  N N  G  GGG   !            |
|           WW  WW  A    A  R   R   N   NN  II  N   NN  G    G                |
|           W    W  A    A  R    R  N    N  II  N    N   GGGG   !!!           |
|     The following INCAR tags have not been used:                            |
|     In line 28: STRESSTYPE                                                  |
|     Please check whether the tags are spelled correctly, have the           |
|     correct format, and do not appear multiple times in the file.           |

 ion  position               nearest neighbor table
   1  0.667  0.333  0.449-   2 2.89   2 2.89   2 2.89
   2  0.333  0.667  0.551-   1 2.89   1 2.89   1 2.89

  LATTYP: Found a hexagonal cell.
 ALAT       =     4.1133665497
 C/A-ratio  =     3.8897578922

  Lattice vectors:

 A1 = (   4.1133665497,   0.0000000000,   0.0000000000)
 A2 = (  -2.0566832748,   3.5622799271,   0.0000000000)
 A3 = (   0.0000000000,   0.0000000000,  16.0000000000)

Analysis of symmetry for initial positions (statically):
 Subroutine PRICEL returns:
 Original cell was already a primitive cell.

 Routine SETGRP: Setting up the symmetry group for a
 hexagonal supercell.

 Subroutine GETGRP returns: Found 12 space group operations
 (whereof 12 operations were pure point group operations)
 out of a pool of 24 trial point group operations.

The static configuration has the point symmetry D_3d.

Analysis of symmetry for dynamics (positions and initial velocities):
 Subroutine PRICEL returns:
 Original cell was already a primitive cell.

[...]

The dynamic configuration has the point symmetry D_3d.

 Subroutine INISYM returns: Found 12 space group operations
 (whereof 12 operations are pure point group operations),
 and found     1 'primitive' translations

 irot  :   1
 isymop:   1   0   0
           0   1   0
           0   0   1

 gtrans:     0.0000000     0.0000000     0.0000000

 ptrans:     0.0000000     0.0000000     0.0000000

 rotmap:
 (   1->   1)  (   2->   2)

[...]

 irot  :  12
 isymop:   0  -1   0
          -1   0   0
           0   0   1

 gtrans:     0.0000000     0.0000000     0.0000000

 ptrans:     0.0000000     0.0000000     0.0000000

 rotmap:
 (   1->   1)  (   2->   2)

                                     Primitive cell

  volume of cell :     234.4474

  direct lattice vectors                    reciprocal lattice vectors
     4.113366550  0.000000000  0.000000000     0.243109868  0.140359548  0.000000000
    -2.056683275  3.562279927  0.000000000     0.000000000  0.280719096  0.000000000
     0.000000000  0.000000000 16.000000000     0.000000000  0.000000000  0.062500000

  length of vectors
     4.113366550  4.113366550 16.000000000     0.280719096  0.280719096  0.062500000

  position of ions in fractional coordinates (direct lattice)
     0.666666667  0.333333333  0.448625398
     0.333333333  0.666666667  0.551374602

  ion indices of the primitive-cell ions
   primitive index   ion index
                 1           1
                 2           2

 KPOINTS: kpoints

Automatic generation of k-mesh.
 Grid dimensions read from file:
 generate k-points for:   11   11    1

 Generating k-lattice:

  Cartesian coordinates                     Fractional coordinates (reciprocal lattice)
     0.022100897  0.012759959  0.000000000     0.090909091  0.000000000  0.000000000
     0.000000000  0.025519918  0.000000000     0.000000000  0.090909091  0.000000000
     0.000000000  0.000000000  0.062500000     0.000000000  0.000000000  1.000000000

  Length of vectors
     0.025519918  0.025519918  0.062500000

  Shift w.r.t. Gamma in fractional coordinates (k-lattice)
     0.000000000  0.000000000  0.000000000

 Subroutine IBZKPT returns following result:

 Found     16 irreducible k-points:

 Following reciprocal coordinates:
            Coordinates               Weight
  0.000000  0.000000  0.000000      1.000000
  0.090909  0.000000  0.000000      6.000000
  0.181818  0.000000  0.000000      6.000000
  0.272727  0.000000  0.000000      6.000000
  0.363636  0.000000  0.000000      6.000000
  0.454545  0.000000  0.000000      6.000000
  0.090909  0.090909  0.000000      6.000000
  0.181818  0.090909  0.000000     12.000000
  0.272727  0.090909  0.000000     12.000000
  0.363636  0.090909  0.000000     12.000000
  0.454545  0.090909  0.000000      6.000000
  0.181818  0.181818  0.000000      6.000000
  0.272727  0.181818  0.000000     12.000000
  0.363636  0.181818  0.000000     12.000000
  0.272727  0.272727  0.000000      6.000000
  0.363636  0.272727  0.000000      6.000000

 Following cartesian coordinates:
            Coordinates               Weight
  0.000000  0.000000  0.000000      1.000000
  0.022101  0.012760  0.000000      6.000000
  0.044202  0.025520  0.000000      6.000000
  0.066303  0.038280  0.000000      6.000000
  0.088404  0.051040  0.000000      6.000000
  0.110504  0.063800  0.000000      6.000000
  0.022101  0.038280  0.000000      6.000000
  0.044202  0.051040  0.000000     12.000000
  0.066303  0.063800  0.000000     12.000000
  0.088404  0.076560  0.000000     12.000000
  0.110504  0.089320  0.000000      6.000000
  0.044202  0.076560  0.000000      6.000000
  0.066303  0.089320  0.000000     12.000000
  0.088404  0.102080  0.000000     12.000000
  0.066303  0.114840  0.000000      6.000000
  0.088404  0.127600  0.000000      6.000000

 Subroutine IBZKPT_HF returns following result:

 Found    121 k-points in 1st BZ
 the following    121 k-points will be used (e.g. in the exchange kernel)
 Following reciprocal coordinates:   # in IRBZ
  0.000000  0.000000  0.000000    0.00826446   1 t-inv F
  0.090909  0.000000  0.000000    0.00826446   2 t-inv F
  0.181818  0.000000  0.000000    0.00826446   3 t-inv F
  0.272727  0.000000  0.000000    0.00826446   4 t-inv F
  0.363636  0.000000  0.000000    0.00826446   5 t-inv F
  0.454545  0.000000  0.000000    0.00826446   6 t-inv F
  0.090909  0.090909  0.000000    0.00826446   7 t-inv F
  0.181818  0.090909  0.000000    0.00826446   8 t-inv F
  0.272727  0.090909  0.000000    0.00826446   9 t-inv F
  0.363636  0.090909  0.000000    0.00826446  10 t-inv F
  0.454545  0.090909  0.000000    0.00826446  11 t-inv F
  0.181818  0.181818  0.000000    0.00826446  12 t-inv F
  0.272727  0.181818  0.000000    0.00826446  13 t-inv F
  0.363636  0.181818  0.000000    0.00826446  14 t-inv F
  0.272727  0.272727  0.000000    0.00826446  15 t-inv F
  0.363636  0.272727  0.000000    0.00826446  16 t-inv F
 -0.090909 -0.000000  0.000000    0.00826446   2 t-inv F
 -0.090909  0.090909  0.000000    0.00826446   2 t-inv F
  0.090909 -0.090909  0.000000    0.00826446   2 t-inv F
  0.000000 -0.090909  0.000000    0.00826446   2 t-inv F
 -0.000000  0.090909  0.000000    0.00826446   2 t-inv F
 -0.181818 -0.000000  0.000000    0.00826446   3 t-inv F
 -0.181818  0.181818  0.000000    0.00826446   3 t-inv F
  0.181818 -0.181818  0.000000    0.00826446   3 t-inv F
  0.000000 -0.181818  0.000000    0.00826446   3 t-inv F
 -0.000000  0.181818  0.000000    0.00826446   3 t-inv F
 -0.272727  0.000000  0.000000    0.00826446   4 t-inv F
 -0.272727  0.272727  0.000000    0.00826446   4 t-inv F
  0.272727 -0.272727  0.000000    0.00826446   4 t-inv F
  0.000000 -0.272727  0.000000    0.00826446   4 t-inv F
  0.000000  0.272727  0.000000    0.00826446   4 t-inv F
 -0.363636  0.000000  0.000000    0.00826446   5 t-inv F
 -0.363636  0.363636  0.000000    0.00826446   5 t-inv F
  0.363636 -0.363636  0.000000    0.00826446   5 t-inv F
  0.000000 -0.363636  0.000000    0.00826446   5 t-inv F
  0.000000  0.363636  0.000000    0.00826446   5 t-inv F
 -0.454545  0.000000  0.000000    0.00826446   6 t-inv F
 -0.454545  0.454545  0.000000    0.00826446   6 t-inv F
  0.454545 -0.454545  0.000000    0.00826446   6 t-inv F
  0.000000 -0.454545  0.000000    0.00826446   6 t-inv F
  0.000000  0.454545  0.000000    0.00826446   6 t-inv F
 -0.090909 -0.090909  0.000000    0.00826446   7 t-inv F
 -0.181818  0.090909  0.000000    0.00826446   7 t-inv F
  0.181818 -0.090909  0.000000    0.00826446   7 t-inv F
  0.090909 -0.181818  0.000000    0.00826446   7 t-inv F
 -0.090909  0.181818  0.000000    0.00826446   7 t-inv F
 -0.181818 -0.090909  0.000000    0.00826446   8 t-inv F
 -0.272727  0.181818  0.000000    0.00826446   8 t-inv F
  0.272727 -0.181818  0.000000    0.00826446   8 t-inv F
  0.090909 -0.272727  0.000000    0.00826446   8 t-inv F
 -0.090909  0.272727  0.000000    0.00826446   8 t-inv F
  0.181818 -0.272727  0.000000    0.00826446   8 t-inv F
 -0.181818  0.272727  0.000000    0.00826446   8 t-inv F
 -0.272727  0.090909  0.000000    0.00826446   8 t-inv F
[...]
      1     -13.4514      2.00000
      2      -7.1712      2.00000
      3      -1.4457      2.00000
      4       0.8114      2.00000
      5       1.6105      2.00000
      6       2.1732      0.00000
      7       2.5493      0.00000
      8       3.5681      0.00000
      9       4.5772      0.00000
     10       5.7549      0.00000
     11       6.7027      0.00000
     12       7.4792      0.00000
     13       9.1673      0.00000
     14      10.6661      0.00000
     15      11.4712      0.00000
     16      12.3331      0.00000

[...]

 soft charge-density along one line, spin component           1
         0         1         2         3         4         5         6         7         8         9
 total charge-density along one line

[...]

 eigenvalue-minimisations  :   784
 total energy-change (2. order) :-0.2533813E+02  (-0.2449231E+02)
 number of electron      10.0000000 magnetization
 augmentation part       10.0000000 magnetization

[...]

 eigenvalue-minimisations  :   320
 total energy-change (2. order) :-0.1136868E-12  ( 0.2007136E-12)
 number of electron      10.0000000 magnetization
 augmentation part       10.0000000 magnetization

[...]

 eigenvalue-minimisations  :   304
 total energy-change (2. order) : 0.0000000E+00  ( 0.3682637E-13)
 number of electron      10.0000000 magnetization
 augmentation part       -1.6409725 magnetization

 Broyden mixing:
  rms(total) = 0.15917E+00    rms(broyden)= 0.15858E+00
  rms(prec ) = 0.18290E+00
  weight for this iteration     100.00

[...]

 eigenvalues of (default mixing * dielectric matrix)
  average eigenvalue GAMMA=   8.9473
  8.9473

[...]

 eigenvalue-minimisations  :   640
 total energy-change (2. order) :-0.5404795E-05  (-0.1018399E-04)
 number of electron      10.0000000 magnetization
 augmentation part       -1.6256725 magnetization

[...]

--------------------------------------- Iteration      1(  19)  ---------------------------------------

 eigenvalue-minimisations  :   656
 total energy-change (2. order) : 0.2908235E-06  (-0.2665071E-06)
 number of electron      10.0000000 magnetization
 augmentation part       -1.6256725 magnetization

 Free energy of the ion-electron system (eV)
  alpha Z        PSCENC =         2.97593478
  Ewald energy   TEWEN  =       213.91894841
  -Hartree energ DENC   =      -472.85891470
  -exchange      EXHF   =         0.00000000
  -V(xc)+E(xc)   XCENC  =       -92.29528153
  PAW double counting   =       366.58328181     -258.81255448
  entropy T*S    EENTRO =        -0.00000000
  eigenvalues    EBANDS =       -67.52086112
  atomic energy  EATOM  =       299.89217194
  Solvation  Ediel_sol  =         0.00000000
  free energy    TOTEN  =        -8.11727490 eV

  energy without entropy =       -8.11727490  energy(sigma->0) =       -8.11727490

 average (electrostatic) potential at core
  the test charge radii are     1.1712
  (the norm of the test charge is              1.0000)
       1 -80.9063       2 -80.9063

 E-fermi :  -2.2422     XC(G=0):  -3.3508     alpha+bet : -2.6626

 Fermi energy:        -2.2421940970

[...]

 soft charge-density along one line, spin component           1
         0         1         2         3         4         5         6         7         8         9
 total charge-density along one line

------------------------ aborting loop because EDIFF is reached ----------------------------------------

 total charge

# of ion       s       p       d       f       tot
    1        1.581   1.846   0.079   0.012   3.518
    2        1.581   1.846   0.079   0.012   3.518
tot          3.162   3.692   0.158   0.025   7.037

  FORCE on cell =-STRESS in cart. coord.  units (eV):
  Direction    XX          YY          ZZ          XY          YZ          ZX
  Alpha Z     2.97593     2.97593     2.97593
  Ewald     422.06021   422.06021  -630.20145    -0.00000     0.00000    -0.00000
  Hartree   461.75689   461.75689  -450.64629    -0.00000    -0.00000    -0.00000
  E(xc)     -39.92885   -39.92885   -40.35336    -0.00000    -0.00000     0.00000
  Local   -1008.46853 -1008.46852   952.07483     0.00000    -0.00000     0.00000
  n-local   128.27454   129.25512   130.24400    -0.47121     0.29382    -1.40952
  augment   -32.92721   -32.92721   -33.42132    -0.00001     0.00000    -0.00000
  Kinetic    64.57681    66.93467    69.29380     0.91405    -0.32462    -1.47877
  Fock        0.00000     0.00000     0.00000     0.00000     0.00000     0.00000
  Total      -0.01099    -0.01099    -0.03387     0.00000    -0.00000     0.00000
  in kB      -0.07511    -0.07511    -0.23145     0.00000    -0.00000     0.00000

 VOLUME and BASIS-vectors are now :
  energy-cutoff  :      193.58
  volume of cell :      234.45
      direct lattice vectors                 reciprocal lattice vectors
     4.113366550  0.000000000  0.000000000     0.243109868  0.140359548  0.000000000
    -2.056683275  3.562279927  0.000000000     0.000000000  0.280719096  0.000000000
     0.000000000  0.000000000 16.000000000     0.000000000  0.000000000  0.062500000

  length of vectors
     4.113366550  4.113366550 16.000000000     0.280719096  0.280719096  0.062500000

 FORCES acting on ions
    electron-ion (+dipol)            ewald-force                    non-local-force                 convergence-correction
   -.766E-07 0.117E-06 0.940E+02   0.188E-11 -.109E-11 -.102E+03   -.278E-16 -.139E-16 0.755E+01   -.138E-06 0.796E-07 -.319E-02
   0.766E-07 -.117E-06 -.940E+02   -.188E-11 0.110E-11 0.102E+03   0.416E-16 0.139E-16 -.755E+01   0.138E-06 -.796E-07 0.319E-02
   -.571E-14 0.276E-13 -.103E-11   0.708E-15 0.320E-14 0.000E+00   0.139E-16 0.000E+00 0.000E+00   -.152E-14 -.294E-16 -.140E-13

 POSITION                                       TOTAL-FORCE (eV/Angst)
      2.05668      1.18743      7.17801         0.000000      0.000000     -0.003942
      0.00000      2.37485      8.82199        -0.000000      0.000000      0.003942
    total drift:                               -0.000000      0.000000     -0.000000

  FREE ENERGIE OF THE ION-ELECTRON SYSTEM (eV)
  free  energy   TOTEN  =        -8.11727490 eV

  energy  without entropy=       -8.11727490  energy(sigma->0) =       -8.11727490

 Found     2 degrees of freedom:

     directions for atom     1:  z
 Linear response reoptimize wavefunctions
 Linear response:
   Degrees of freedom DOF   =            2
 Linear response progress:
  Degree of freedom:   1/  2
  LATTYP: Found a hexagonal cell.
 ALAT       =     4.1133665497
 C/A-ratio  =     3.8897578922

[...]

The dynamic configuration has the point symmetry C_1 .

[...]

----------------------------------------- Iteration    4(   1)  ---------------------------------------

 Free energy of the ion-electron system (eV)
  -Hartree energ DENC   =        -0.00928401
  -V(xc)+E(xc)   XCENC  =         0.00116698
  PAW double counting   =         0.00000000        0.00000000
  entropy T*S    EENTRO =         0.00000000
  eigenvalues    EBANDS =        -0.01515629
  free energy    TOTEN  =        -0.02327332 eV

  energy without entropy =       -0.02327332

[...]

 INTERNAL STRAIN TENSOR  FOR ION    1  DIRECTION 1   (eV/Angst):
    -0.00822  3.59517  9.19297
     3.59517  0.00815  0.04819
     8.90786 -0.09030 -0.00013

 POSITION                   FORCE-CONSTANT FOR ION    1 DIRECTION 1 (eV/Angst/Angst)
      2.05668      1.18743      7.17801        -5.704564      0.000006      0.000050
      0.00000      2.37485      8.82199         5.704564     -0.000006     -0.000050
    total drift:                                0.000000      0.000000      0.000000

 Linear response progress:
  Degree of freedom:   2/  2
  LATTYP: Found a hexagonal cell.
 ALAT       =     4.1133665497
 C/A-ratio  =     3.8897578922

[...]

The dynamic configuration has the point symmetry C_3v.

[...]

----------------------------------------- Iteration    6(   9)  ---------------------------------------

 Broyden mixing:
  rms(total) = 0.16355E-02    rms(broyden)= 0.16339E-02
  rms(prec ) = 0.21275E-02
  weight for this iteration     100.00

 eigenvalues of (default mixing * dielectric matrix)
  average eigenvalue GAMMA=   3.8568
 10.1342  7.3381  4.7976  1.4843  0.9905  1.0074  1.2451

 Free energy of the ion-electron system (eV)
  -Hartree energ DENC   =        -0.02386124
  -V(xc)+E(xc)   XCENC  =         0.00122692
  PAW double counting   =         0.00281299       -0.00281724
  entropy T*S    EENTRO =         0.00000000
  eigenvalues    EBANDS =        -0.01779301
  free energy    TOTEN  =        -0.04043158 eV

  energy without entropy =       -0.04043158

[...]

 k-point  16 :       0.3636    0.2727    0.0000
  band No.  band energies     occupation
      1      -2.7136      0.00000
      2      -2.3716      0.00000
      3      -3.2420      0.00000
      4      -0.6137      0.00000
      5      -0.2049      0.00000
      6       1.3226      0.00000
      7       2.1904      0.00000
      8       1.6137      0.00000
      9      -1.6581      0.00000
     10      -0.0819      0.00000
     11      -0.7610      0.00000
     12       0.2976      0.00000
     13       0.1188      0.00000
     14      -1.0638      0.00000
     15      -0.1792      0.00000
     16      -0.8703      0.00000

------------------------ aborting loop because EDIFF is reached ----------------------------------------

 INTERNAL STRAIN TENSOR  FOR ION    1  DIRECTION 3   (eV/Angst):
     6.69446 -0.00000  0.00000
     0.00000  6.69446 -0.00000
     0.00000  0.00000 14.93574

 POSITION                   FORCE-CONSTANT FOR ION    1 DIRECTION 3 (eV/Angst/Angst)
      2.05668      1.18743      7.17801         0.000000      0.000000     -9.076069
      0.00000      2.37485      8.82199        -0.000000     -0.000000      9.076069
    total drift:                                0.000000      0.000000      0.000000

  LATTYP: Found a hexagonal cell.
 ALAT       =     4.1133665497
 C/A-ratio  =     3.8897578922

  Lattice vectors:

 A1 = (   4.1133665497,   0.0000000000,   0.0000000000)
 A2 = (  -2.0566832748,   3.5622799271,   0.0000000000)
 A3 = (   0.0000000000,   0.0000000000,  16.0000000000)

Analysis of symmetry for initial positions (statically):
 Subroutine PRICEL returns:
 Original cell was already a primitive cell.

[...]

The static configuration has the point symmetry D_3d.

Analysis of symmetry for dynamics (positions and initial velocities):
 Subroutine PRICEL returns:
 Original cell was already a primitive cell.

 Routine SETGRP: Setting up the symmetry group for a
 hexagonal supercell.

 Subroutine GETGRP returns: Found 12 space group operations
 (whereof 12 operations were pure point group operations)
 out of a pool of 24 trial point group operations.

The dynamic configuration has the point symmetry D_3d.

 Subroutine INISYM returns: Found 12 space group operations
 (whereof 12 operations are pure point group operations),
 and found     1 'primitive' translations

 KPOINTS: kpoints

Automatic generation of k-mesh.
 Grid dimensions read from file:
 generate k-points for:   11   11    1

 Generating k-lattice:

  Cartesian coordinates                     Fractional coordinates (reciprocal lattice)
     0.022100897  0.012759959  0.000000000     0.090909091  0.000000000  0.000000000
     0.000000000  0.025519918  0.000000000     0.000000000  0.090909091  0.000000000
     0.000000000  0.000000000  0.062500000     0.000000000  0.000000000  1.000000000

  Length of vectors
     0.025519918  0.025519918  0.062500000

  Shift w.r.t. Gamma in fractional coordinates (k-lattice)
     0.000000000  0.000000000  0.000000000

 Subroutine IBZKPT returns following result:

 Found     16 irreducible k-points:

 Following reciprocal coordinates:
            Coordinates               Weight
  0.000000  0.000000  0.000000      1.000000
  0.090909  0.000000  0.000000      6.000000
  0.181818  0.000000  0.000000      6.000000
  0.272727  0.000000  0.000000      6.000000
  0.363636  0.000000  0.000000      6.000000
  0.454545  0.000000  0.000000      6.000000
  0.090909  0.090909  0.000000      6.000000
  0.181818  0.090909  0.000000     12.000000
  0.272727  0.090909  0.000000     12.000000
  0.363636  0.090909  0.000000     12.000000
  0.454545  0.090909  0.000000      6.000000
  0.181818  0.181818  0.000000      6.000000
  0.272727  0.181818  0.000000     12.000000
  0.363636  0.181818  0.000000     12.000000
  0.272727  0.272727  0.000000      6.000000
  0.363636  0.272727  0.000000      6.000000

 Following cartesian coordinates:
            Coordinates               Weight
  0.000000  0.000000  0.000000      1.000000
  0.022101  0.012760  0.000000      6.000000
  0.044202  0.025520  0.000000      6.000000
  0.066303  0.038280  0.000000      6.000000
  0.088404  0.051040  0.000000      6.000000
  0.110504  0.063800  0.000000      6.000000
  0.022101  0.038280  0.000000      6.000000
  0.044202  0.051040  0.000000     12.000000
  0.066303  0.063800  0.000000     12.000000
  0.088404  0.076560  0.000000     12.000000
  0.110504  0.089320  0.000000      6.000000
  0.044202  0.076560  0.000000      6.000000
  0.066303  0.089320  0.000000     12.000000
  0.088404  0.102080  0.000000     12.000000
  0.066303  0.114840  0.000000      6.000000
  0.088404  0.127600  0.000000      6.000000

 INTERNAL STRAIN TENSOR FOR ION    1 for displacements in x,y,z  (eV/Angst):
          X           Y           Z          XY          YZ          ZX
  x     0.00000     0.00000     0.00000     3.59517     0.00000     9.19297
  y     3.59517    -3.59517    -0.00000     0.00000     8.90786     0.00000
  z     6.69446     6.69446    14.93574     0.00000     0.00000     0.00000

 INTERNAL STRAIN TENSOR FOR ION    2 for displacements in x,y,z  (eV/Angst):
          X           Y           Z          XY          YZ          ZX
  x     0.00000     0.00000     0.00000    -3.59517     0.00000    -9.19297
  y    -3.59517     3.59517     0.00000     0.00000    -8.90786     0.00000
  z    -6.69446    -6.69446   -14.93574     0.00000     0.00000    -0.00000

 SECOND DERIVATIVES (NOT SYMMETRIZED)
               1X          1Y          1Z          2X          2Y          2Z
  1X    -5.704564    0.000000    0.000000    5.704564    0.000000    0.000000
  1Y     0.000000   -5.704564   -0.000000    0.000000    5.704564    0.000000
  1Z    -0.000000    0.000000   -9.076069    0.000000   -0.000000    9.076069
  2X     5.704564    0.000000    0.000000   -5.704564    0.000000    0.000000
  2Y     0.000000    5.704564    0.000000    0.000000   -5.704564   -0.000000
  2Z     0.000000   -0.000000    9.076069   -0.000000    0.000000   -9.076069

 Eigenvectors and eigenvalues of the dynamical matrix

   1 f  =    6.036430 THz    37.928006 2PiTHz  201.353617 cm-1    24.964656 meV
             X         Y         Z           dx          dy          dz
      2.056683  1.187427  7.178006    -0.000000   -0.000000    0.707107
      0.000000  2.374853  8.821994    -0.000000    0.000000   -0.707107

[...]

   5 f/i=    0.000000 THz     0.000000 2PiTHz    0.000002 cm-1     0.000000 meV
             X         Y         Z           dx          dy          dz
      2.056683  1.187427  7.178006     0.164859   -0.685182   -0.057851
      0.000000  2.374853  8.821994     0.164859   -0.685182   -0.057851

[...]

 Eigenvectors after division by SQRT(mass)

 Eigenvectors and eigenvalues of the dynamical matrix

[...]

   4 f  =    0.000000 THz     0.000000 2PiTHz    0.000000 cm-1     0.000000 meV
             X         Y         Z           dx          dy          dz
      2.056683  1.187427  7.178006    -0.062317   -0.014916   -0.000919
      0.000000  2.374853  8.821994    -0.062317   -0.014916   -0.000919

[...]

   6 f/i=    0.000000 THz     0.000001 2PiTHz    0.000004 cm-1     0.000000 meV
             X         Y         Z           dx          dy          dz
      2.056683  1.187427  7.178006    -0.000330    0.005313   -0.063863
      0.000000  2.374853  8.821994    -0.000330    0.005313   -0.063863

 ELASTIC MODULI CONTR FROM IONIC RELAXATION (kBar)
 Direction    XX          YY          ZZ          XY          YZ          ZX
 XX         -49.2281    -18.2602    -75.2852      0.0000    -38.3650     -0.0000
 YY         -18.2602    -49.2281    -75.2852      0.0000     38.3650     -0.0000
 ZZ         -75.2852    -75.2852   -167.9659      0.0000      0.0000     -0.0000
 XY           0.0000      0.0000      0.0000    -15.4839      0.0000    -39.5930
 YZ         -38.3650     38.3650      0.0000      0.0000    -95.0581      0.0000
 ZX          -0.0000     -0.0000     -0.0000    -39.5930      0.0000   -101.2406

 total charge

# of ion       s       p       d       f       tot
    1        1.581   1.846   0.079   0.012   3.518
    2        1.581   1.846   0.079   0.012   3.518
tot          3.162   3.692   0.158   0.025   7.036