 vasp.6.4.2 20Jul23 (build Nov 14 2023 12:59:38) complex

 executed on             LinuxIFC date 2023.12.16  19:45:18

 INCAR:
   ENCUT = 193.577625
   ALGO = Normal
   NELM = 200
   NELMIN = 6
   NELMDL = -12
   EDIFF = 1.0E-7
   AMIX = 0.1
   BMIX = 0.0001
   PREC = Accurate
   IVDW = 0
   ISPIN = 1
   ADDGRID = .TRUE.
   LASPH = .TRUE.
   EDIFFG = -0.010
   IBRION = 8
   STRESSTYPE = 2
   ISMEAR = 0
   SIGMA = 0.01
   LORBIT = 10
   NEDOS = 6001
   NWRITE = 1
   LWAVE = .FALSE.
   LCHARG = .FALSE.
   LPLANE = .TRUE.

 POTCAR:    PAW_PBE Sb_GW 21Mar2012
|           W    W    AA    RRRRR   N    N  II  N    N   GGGG   !!!           |
|           W    W   A  A   R    R  NN   N  II  NN   N  G    G  !!!           |
|           W    W  A    A  R    R  N N  N  II  N N  N  G       !!!           |
|           W WW W  AAAAAA  RRRRR   N  N N  II  N  N N  G  GGG   !            |
|           WW  WW  A    A  R   R   N   NN  II  N   NN  G    G                |
|           W    W  A    A  R    R  N    N  II  N    N   GGGG   !!!           |
|     For optimal performance we recommend to set                             |
|       NCORE = 2 up to number-of-cores-per-socket                            |
|     This setting can greatly improve the performance of VASP for DFT.       |
|     The default, NCORE=1 might be grossly inefficient on modern             |
|     multi-core architectures or massively parallel machines. Do your        |
|     Unfortunately you need to use the default for GW and RPA                |
|     calculations (for HF NCORE is supported but not extensively tested      |
|     yet).                                                                   |

 POTCAR:    PAW_PBE Sb_GW 21Mar2012

  PAW_PBE Sb_GW 21Mar2012               :

 POSCAR: generated by phonopy
  positions in direct lattice
 exchange correlation table for  LEXCH =        8
   RHO(1)=    0.500       N(1)  =     2000
   RHO(2)=  100.500       N(2)  =     4000

 ion  position               nearest neighbor table
   1  0.222  0.111  0.449-  10 2.89  11 2.89  16 2.89
   2  0.556  0.111  0.449-  11 2.89  12 2.89  17 2.89
   3  0.889  0.111  0.449-  12 2.89  18 2.89  10 2.89
   4  0.222  0.444  0.449-  10 2.89  13 2.89  14 2.89
   5  0.556  0.444  0.449-  11 2.89  15 2.89  14 2.89
   6  0.889  0.444  0.449-  12 2.89  15 2.89  13 2.89
   7  0.222  0.778  0.449-  16 2.89  13 2.89  17 2.89
   8  0.556  0.778  0.449-  14 2.89  17 2.89  18 2.89
   9  0.889  0.778  0.449-  18 2.89  15 2.89  16 2.89
  10  0.111  0.222  0.551-   1 2.89   4 2.89   3 2.89
  11  0.444  0.222  0.551-   1 2.89   2 2.89   5 2.89
  12  0.778  0.222  0.551-   3 2.89   2 2.89   6 2.89
  13  0.111  0.556  0.551-   4 2.89   7 2.89   6 2.89
  14  0.444  0.556  0.551-   8 2.89   4 2.89   5 2.89
  15  0.778  0.556  0.551-   6 2.89   9 2.89   5 2.89
  16  0.111  0.889  0.551-   7 2.89   1 2.89   9 2.89
  17  0.444  0.889  0.551-   7 2.89   8 2.89   2 2.89
  18  0.778  0.889  0.551-   9 2.89   8 2.89   3 2.89

  LATTYP: Found a hexagonal cell.
 ALAT       =    12.3400996490
 C/A-ratio  =     1.2965859641

  Lattice vectors:

 A1 = (  12.3400996490,   0.0000000000,   0.0000000000)
 A2 = (  -6.1700498245,  10.6868397813,   0.0000000000)
 A3 = (   0.0000000000,   0.0000000000,  16.0000000000)

Analysis of symmetry for initial positions (statically):
 Subroutine PRICEL returns following result:

[...]

   9 primitive cells build up your supercell.

 Routine SETGRP: Setting up the symmetry group for a
 hexagonal supercell.

 Subroutine GETGRP returns: Found 12 space group operations
 (whereof 12 operations were pure point group operations)
 out of a pool of 24 trial point group operations.

The static configuration has the point symmetry D_3d.

Analysis of symmetry for dynamics (positions and initial velocities):
 Subroutine PRICEL returns following result:

[...]

The dynamic configuration has the point symmetry D_3d.

 Subroutine INISYM returns: Found 12 space group operations
 (whereof 12 operations are pure point group operations),
 and found     9 'primitive' translations

                                     Primitive cell

  volume of cell :     234.4474

  direct lattice vectors                    reciprocal lattice vectors
     4.113366550  0.000000000  0.000000000     0.243109868  0.140359548  0.000000000
    -2.056683275  3.562279927  0.000000000     0.000000000  0.280719096  0.000000000
     0.000000000  0.000000000 16.000000000     0.000000000  0.000000000  0.062500000

  length of vectors
     4.113366550  4.113366550 16.000000000     0.280719096  0.280719096  0.062500000

  position of ions in fractional coordinates (direct lattice)
     0.666666667  0.333333333  0.448625398
     0.333333333  0.666666667  0.551374602

  ion indices of the primitive-cell ions
   primitive index   ion index
                 1           1
                 2          10

 KPOINTS: Fully automatic mesh

Automatic generation of k-mesh.
 Grid dimensions derived from RKLEN:
 generate k-points for:    4    4    3

 Generating k-lattice:

  Cartesian coordinates                     Fractional coordinates (reciprocal lattice)
     0.020259156  0.011696629  0.000000000     0.250000000 -0.000000000  0.000000000
     0.000000000  0.023393258  0.000000000     0.000000000  0.250000000  0.000000000
     0.000000000  0.000000000  0.020833333     0.000000000  0.000000000  0.333333333

  Length of vectors
     0.023393258  0.023393258  0.020833333

  Shift w.r.t. Gamma in fractional coordinates (k-lattice)
     0.000000000  0.000000000  0.000000000

 Subroutine IBZKPT returns following result:

 Found      9 irreducible k-points:

 Following reciprocal coordinates:
            Coordinates               Weight
  0.000000  0.000000  0.000000      1.000000
  0.250000 -0.000000  0.000000      6.000000
  0.500000 -0.000000  0.000000      3.000000
  0.250000  0.250000  0.000000      6.000000
  0.000000  0.000000  0.333333      2.000000
  0.250000 -0.000000  0.333333      6.000000
  0.000000  0.250000  0.333333      6.000000
  0.500000 -0.000000  0.333333      6.000000
  0.250000  0.250000  0.333333     12.000000

 Following cartesian coordinates:
            Coordinates               Weight
  0.000000  0.000000  0.000000      1.000000
  0.020259  0.011697  0.000000      6.000000
  0.040518  0.023393  0.000000      3.000000
  0.020259  0.035090  0.000000      6.000000
  0.000000  0.000000  0.020833      2.000000
  0.020259  0.011697  0.020833      6.000000
  0.000000  0.023393  0.020833      6.000000
  0.040518  0.023393  0.020833      6.000000
  0.020259  0.035090  0.020833     12.000000

 Subroutine IBZKPT_HF returns following result:

 Found     48 k-points in 1st BZ
 the following     48 k-points will be used (e.g. in the exchange kernel)
 Following reciprocal coordinates:   # in IRBZ
  0.000000  0.000000  0.000000    0.02083333   1 t-inv F
  0.250000 -0.000000  0.000000    0.02083333   2 t-inv F
  0.500000 -0.000000  0.000000    0.02083333   3 t-inv F
  0.250000  0.250000  0.000000    0.02083333   4 t-inv F
  0.000000  0.000000  0.333333    0.02083333   5 t-inv F
  0.250000 -0.000000  0.333333    0.02083333   6 t-inv F
  0.000000  0.250000  0.333333    0.02083333   7 t-inv F
  0.500000 -0.000000  0.333333    0.02083333   8 t-inv F
  0.250000  0.250000  0.333333    0.02083333   9 t-inv F
 -0.250000  0.000000  0.000000    0.02083333   2 t-inv F
 -0.250000  0.250000  0.000000    0.02083333   2 t-inv F
  0.250000 -0.250000  0.000000    0.02083333   2 t-inv F
 -0.000000 -0.250000  0.000000    0.02083333   2 t-inv F
  0.000000  0.250000  0.000000    0.02083333   2 t-inv F
 -0.500000  0.500000  0.000000    0.02083333   3 t-inv F
 -0.000000 -0.500000  0.000000    0.02083333   3 t-inv F
 -0.250000 -0.250000  0.000000    0.02083333   4 t-inv F
 -0.500000  0.250000  0.000000    0.02083333   4 t-inv F
  0.500000 -0.250000  0.000000    0.02083333   4 t-inv F
  0.250000 -0.500000  0.000000    0.02083333   4 t-inv F
 -0.250000  0.500000  0.000000    0.02083333   4 t-inv F
  0.000000  0.000000 -0.333333    0.02083333   5 t-inv F
 -0.250000  0.000000 -0.333333    0.02083333   6 t-inv F
 -0.250000  0.250000  0.333333    0.02083333   6 t-inv F
  0.250000 -0.250000 -0.333333    0.02083333   6 t-inv F
 -0.000000 -0.250000  0.333333    0.02083333   6 t-inv F
  0.000000  0.250000 -0.333333    0.02083333   6 t-inv F
  0.000000 -0.250000 -0.333333    0.02083333   7 t-inv F
 -0.250000  0.000000  0.333333    0.02083333   7 t-inv F
  0.250000  0.000000 -0.333333    0.02083333   7 t-inv F
  0.250000 -0.250000  0.333333    0.02083333   7 t-inv F
 -0.250000  0.250000 -0.333333    0.02083333   7 t-inv F
 -0.500000  0.000000 -0.333333    0.02083333   8 t-inv F
 -0.500000  0.500000  0.333333    0.02083333   8 t-inv F
  0.500000 -0.500000 -0.333333    0.02083333   8 t-inv F
 -0.000000 -0.500000  0.333333    0.02083333   8 t-inv F
  0.000000  0.500000 -0.333333    0.02083333   8 t-inv F
 -0.250000 -0.250000 -0.333333    0.02083333   9 t-inv F
 -0.500000  0.250000  0.333333    0.02083333   9 t-inv F
  0.500000 -0.250000 -0.333333    0.02083333   9 t-inv F
  0.250000 -0.500000  0.333333    0.02083333   9 t-inv F
 -0.250000  0.500000 -0.333333    0.02083333   9 t-inv F
  0.250000 -0.500000 -0.333333    0.02083333   9 t-inv F
 -0.250000  0.500000  0.333333    0.02083333   9 t-inv F
 -0.500000  0.250000 -0.333333    0.02083333   9 t-inv F
  0.500000 -0.250000  0.333333    0.02083333   9 t-inv F
  0.250000  0.250000 -0.333333    0.02083333   9 t-inv F
 -0.250000 -0.250000  0.333333    0.02083333   9 t-inv F

 SYSTEM =  unknown system
 POSCAR =  generated by phonopy

 Startparameter for this run:
   NWRITE =      1    write-flag & timer
   PREC   = accura    normal or accurate (medium, high low for compatibility)
   ISTART =      0    job   : 0-new  1-cont  2-samecut
   ICHARG =      2    charge: 1-file 2-atom 10-const
   ISPIN  =      1    spin polarized calculation?
   LNONCOLLINEAR =      F non collinear calculations
   LSORBIT =      F    spin-orbit coupling
   INIWAV =      1    electr: 0-lowe 1-rand  2-diag
   LASPH  =      T    aspherical Exc in radial PAW
 Electronic Relaxation 1
   ENCUT  =  193.6 eV  14.23 Ry    3.77 a.u.  14.00 14.00 18.15*2*pi/ulx,y,z
   ENINI  =  193.6     initial cutoff
   ENAUG  =  560.6 eV  augmentation charge cutoff
   NELM   =    200;   NELMIN=  6; NELMDL=-12     # of ELM steps
   EDIFF  = 0.1E-06   stopping-criterion for ELM
   LREAL  =      F    real-space projection
   NLSPLINE    = F    spline interpolate recip. space projectors
   LCOMPAT=      F    compatible to vasp.4.4
   GGA_COMPAT  = T    GGA compatible to vasp.4.4-vasp.4.6
   LMAXPAW     = -100 max onsite density
   LMAXMIX     =    2 max onsite mixed and CHGCAR
   VOSKOWN=      0    Vosko Wilk Nusair interpolation
   ROPT   =    0.00000
 Ionic relaxation
   EDIFFG = -.1E-01   stopping-criterion for IOM
   NSW    =      1    number of steps for IOM
   NBLOCK =      1;   KBLOCK =      1    inner block; outer block
   IBRION =      8    ionic relax: 0-MD 1-quasi-New 2-CG
   NFREE  =      0    steps in history (QN), initial steepest desc. (CG)
   ISIF   =      2    stress and relaxation
[...]
 14Y    -0.000000   -0.022821    0.016713   -0.041539    0.129173   -0.036912    0.041539    0.129173   -0.036912    1.161182    1.153220    1.323243   -1.161182    1.153220    1.323243    0.000000    0.057226    0.073823   -0.006535   -0.034139   -0.008356   -0.000000    3.164446   -2.646485    0.006535   -0.034139   -0.008356    0.153343    0.122690    0.117589   -0.153343    0.122690    0.117589    0.000000    0.037751    0.000000    0.003056   -0.147323   -0.188703   -0.000000   -5.966372   -0.000000   -0.003056   -0.147323   -0.188703   -0.000000    0.036270   -0.000000   -0.158695    0.123129    0.071114    0.158695    0.123129    0.071114
 14Z     0.000000    0.017263    0.064076   -0.065785   -0.037981    0.161572    0.065785   -0.037981    0.161572    2.287971    1.320961    2.803419   -2.287971    1.320961    2.803419    0.000000    0.075962    0.161572    0.014950   -0.008632    0.064076    0.000000   -2.641922    2.803419   -0.014950   -0.008632    0.064076   -0.175502    0.071629   -0.297457    0.175502    0.071629   -0.297457    0.000000    0.000000   -0.035295   -0.025718   -0.187804   -0.297457   -0.000000    0.000000   -7.231733    0.025718   -0.187804   -0.297457   -0.000000    0.000000   -0.035433    0.149784    0.116175   -0.297457   -0.149784    0.116175   -0.297457
 15X     0.081208    0.041539    0.063933   -0.037912   -0.000000    0.000000    0.081208   -0.041539   -0.063933    0.153155    0.000000   -0.000000    2.494037    1.161182    2.291923    2.494037   -1.161182   -2.291923   -0.026594    0.006535   -0.014474   -0.026594   -0.006535    0.014474    0.482811    0.000000   -0.000000    0.037751   -0.000000    0.000000   -0.057026    0.158948   -0.150005   -0.057026   -0.158948    0.150005    0.212987    0.002549   -0.026832    0.212987   -0.002549    0.026832   -5.966372    0.000000   -0.000000   -0.057465    0.153090   -0.176837    0.036270    0.000000    0.000000   -0.057465   -0.153090    0.176837
 15Y     0.041539    0.129173   -0.036912   -0.000000   -0.022821    0.016713   -0.041539    0.129173   -0.036912    0.000000    0.057226    0.073823    1.161182    1.153220    1.323243   -1.161182    1.153220    1.323243    0.006535   -0.034139   -0.008356   -0.006535   -0.034139   -0.008356   -0.000000    3.164446   -2.646485    0.000000    0.037751    0.000000    0.153343    0.122690    0.117589   -0.153343    0.122690    0.117589   -0.003056   -0.147323   -0.188703    0.003056   -0.147323   -0.188703   -0.000000   -5.966372   -0.000000    0.158695    0.123129    0.071114   -0.000000    0.036270   -0.000000   -0.158695    0.123129    0.071114
 15Z     0.065785   -0.037981    0.161572    0.000000    0.017263    0.064076   -0.065785   -0.037981    0.161572    0.000000    0.075962    0.161572    2.287971    1.320961    2.803419   -2.287971    1.320961    2.803419   -0.014950   -0.008632    0.064076    0.014950   -0.008632    0.064076    0.000000   -2.641922    2.803419    0.000000    0.000000   -0.035295   -0.175502    0.071629   -0.297457    0.175502    0.071629   -0.297457    0.025718   -0.187804   -0.297457   -0.025718   -0.187804   -0.297457   -0.000000    0.000000   -7.231733   -0.149784    0.116175   -0.297457   -0.000000    0.000000   -0.035433    0.149784    0.116175   -0.297457
 16X     0.482811    0.000000   -0.000000   -0.026594    0.006535   -0.014474   -0.026594   -0.006535    0.014474    0.081208   -0.041539   -0.063933    0.081208    0.041539    0.063933   -0.037912   -0.000000    0.000000    2.494037   -1.161182   -2.291923    0.153155    0.000000   -0.000000    2.494037    1.161182    2.291923   -0.057465   -0.153090    0.176837   -0.057465    0.153090   -0.176837    0.036270    0.000000    0.000000   -0.057026   -0.158948    0.150005    0.037751   -0.000000    0.000000   -0.057026    0.158948   -0.150005   -5.966372    0.000000   -0.000000    0.212987    0.002549   -0.026832    0.212987   -0.002549    0.026832
 16Y    -0.000000    3.164446   -2.646485    0.006535   -0.034139   -0.008356   -0.006535   -0.034139   -0.008356   -0.041539    0.129173   -0.036912    0.041539    0.129173   -0.036912   -0.000000   -0.022821    0.016713   -1.161182    1.153220    1.323243    0.000000    0.057226    0.073823    1.161182    1.153220    1.323243   -0.158695    0.123129    0.071114    0.158695    0.123129    0.071114   -0.000000    0.036270   -0.000000   -0.153343    0.122690    0.117589    0.000000    0.037751    0.000000    0.153343    0.122690    0.117589   -0.000000   -5.966372   -0.000000   -0.003056   -0.147323   -0.188703    0.003056   -0.147323   -0.188703
 16Z     0.000000   -2.641922    2.803419   -0.014950   -0.008632    0.064076    0.014950   -0.008632    0.064076   -0.065785   -0.037981    0.161572    0.065785   -0.037981    0.161572    0.000000    0.017263    0.064076   -2.287971    1.320961    2.803419    0.000000    0.075962    0.161572    2.287971    1.320961    2.803419    0.149784    0.116175   -0.297457   -0.149784    0.116175   -0.297457   -0.000000    0.000000   -0.035433    0.175502    0.071629   -0.297457    0.000000    0.000000   -0.035295   -0.175502    0.071629   -0.297457   -0.000000    0.000000   -7.231733    0.025718   -0.187804   -0.297457   -0.025718   -0.187804   -0.297457
 17X    -0.026594   -0.006535    0.014474    0.482811    0.000000   -0.000000   -0.026594    0.006535   -0.014474   -0.037912   -0.000000    0.000000    0.081208   -0.041539   -0.063933    0.081208    0.041539    0.063933    2.494037    1.161182    2.291923    2.494037   -1.161182   -2.291923    0.153155    0.000000   -0.000000    0.036270    0.000000    0.000000   -0.057465   -0.153090    0.176837   -0.057465    0.153090   -0.176837   -0.057026    0.158948   -0.150005   -0.057026   -0.158948    0.150005    0.037751   -0.000000    0.000000    0.212987   -0.002549    0.026832   -5.966372    0.000000   -0.000000    0.212987    0.002549   -0.026832
 17Y    -0.006535   -0.034139   -0.008356   -0.000000    3.164446   -2.646485    0.006535   -0.034139   -0.008356   -0.000000   -0.022821    0.016713   -0.041539    0.129173   -0.036912    0.041539    0.129173   -0.036912    1.161182    1.153220    1.323243   -1.161182    1.153220    1.323243    0.000000    0.057226    0.073823   -0.000000    0.036270   -0.000000   -0.158695    0.123129    0.071114    0.158695    0.123129    0.071114    0.153343    0.122690    0.117589   -0.153343    0.122690    0.117589    0.000000    0.037751    0.000000    0.003056   -0.147323   -0.188703   -0.000000   -5.966372   -0.000000   -0.003056   -0.147323   -0.188703
 17Z     0.014950   -0.008632    0.064076    0.000000   -2.641922    2.803419   -0.014950   -0.008632    0.064076    0.000000    0.017263    0.064076   -0.065785   -0.037981    0.161572    0.065785   -0.037981    0.161572    2.287971    1.320961    2.803419   -2.287971    1.320961    2.803419    0.000000    0.075962    0.161572   -0.000000    0.000000   -0.035433    0.149784    0.116175   -0.297457   -0.149784    0.116175   -0.297457   -0.175502    0.071629   -0.297457    0.175502    0.071629   -0.297457    0.000000    0.000000   -0.035295   -0.025718   -0.187804   -0.297457   -0.000000    0.000000   -7.231733    0.025718   -0.187804   -0.297457
 18X    -0.026594    0.006535   -0.014474   -0.026594   -0.006535    0.014474    0.482811    0.000000   -0.000000    0.081208    0.041539    0.063933   -0.037912   -0.000000    0.000000    0.081208   -0.041539   -0.063933    0.153155    0.000000   -0.000000    2.494037    1.161182    2.291923    2.494037   -1.161182   -2.291923   -0.057465    0.153090   -0.176837    0.036270    0.000000    0.000000   -0.057465   -0.153090    0.176837    0.037751   -0.000000    0.000000   -0.057026    0.158948   -0.150005   -0.057026   -0.158948    0.150005    0.212987    0.002549   -0.026832    0.212987   -0.002549    0.026832   -5.966372    0.000000   -0.000000
 18Y     0.006535   -0.034139   -0.008356   -0.006535   -0.034139   -0.008356   -0.000000    3.164446   -2.646485    0.041539    0.129173   -0.036912   -0.000000   -0.022821    0.016713   -0.041539    0.129173   -0.036912    0.000000    0.057226    0.073823    1.161182    1.153220    1.323243   -1.161182    1.153220    1.323243    0.158695    0.123129    0.071114   -0.000000    0.036270   -0.000000   -0.158695    0.123129    0.071114    0.000000    0.037751    0.000000    0.153343    0.122690    0.117589   -0.153343    0.122690    0.117589   -0.003056   -0.147323   -0.188703    0.003056   -0.147323   -0.188703   -0.000000   -5.966372   -0.000000
 18Z    -0.014950   -0.008632    0.064076    0.014950   -0.008632    0.064076    0.000000   -2.641922    2.803419    0.065785   -0.037981    0.161572    0.000000    0.017263    0.064076   -0.065785   -0.037981    0.161572    0.000000    0.075962    0.161572    2.287971    1.320961    2.803419   -2.287971    1.320961    2.803419   -0.149784    0.116175   -0.297457   -0.000000    0.000000   -0.035433    0.149784    0.116175   -0.297457    0.000000    0.000000   -0.035295   -0.175502    0.071629   -0.297457    0.175502    0.071629   -0.297457    0.025718   -0.187804   -0.297457   -0.025718   -0.187804   -0.297457   -0.000000    0.000000   -7.231733

 Eigenvectors and eigenvalues of the dynamical matrix

   1 f  =    6.040131 THz    37.951259 2PiTHz  201.477067 cm-1    24.979961 meV
             X         Y         Z           dx          dy          dz
      2.056683  1.187427  7.178006    -0.000000    0.000000    0.235702
      6.170050  1.187427  7.178006    -0.000000    0.000000    0.235702
     10.283416  1.187427  7.178006    -0.000000    0.000000    0.235702
      0.000000  4.749707  7.178006    -0.000000   -0.000000    0.235702
      4.113367  4.749707  7.178006    -0.000000   -0.000000    0.235702
      8.226733  4.749707  7.178006    -0.000000    0.000000    0.235702
     -2.056683  8.311986  7.178006    -0.000000   -0.000000    0.235702
      2.056683  8.311986  7.178006    -0.000000   -0.000000    0.235702
      6.170050  8.311986  7.178006     0.000000   -0.000000    0.235702
      0.000000  2.374853  8.821994     0.000000    0.000000   -0.235702
      4.113367  2.374853  8.821994     0.000000    0.000000   -0.235702
      8.226733  2.374853  8.821994    -0.000000    0.000000   -0.235702
     -2.056683  5.937133  8.821994     0.000000    0.000000   -0.235702
      2.056683  5.937133  8.821994     0.000000   -0.000000   -0.235702
      6.170050  5.937133  8.821994     0.000000   -0.000000   -0.235702
     -4.113367  9.499413  8.821994     0.000000    0.000000   -0.235702
      0.000000  9.499413  8.821994    -0.000000    0.000000   -0.235702
      4.113367  9.499413  8.821994     0.000000    0.000000   -0.235702

[...]

  52 f  =    0.000000 THz     0.000001 2PiTHz    0.000004 cm-1     0.000000 meV
             X         Y         Z           dx          dy          dz
      2.056683  1.187427  7.178006    -0.174269    0.158632   -0.004656
      6.170050  1.187427  7.178006    -0.174269    0.158632   -0.004656
     10.283416  1.187427  7.178006    -0.174269    0.158632   -0.004656
      0.000000  4.749707  7.178006    -0.174269    0.158632   -0.004656
      4.113367  4.749707  7.178006    -0.174269    0.158632   -0.004656
      8.226733  4.749707  7.178006    -0.174269    0.158632   -0.004656
     -2.056683  8.311986  7.178006    -0.174269    0.158632   -0.004656
      2.056683  8.311986  7.178006    -0.174269    0.158632   -0.004656
      6.170050  8.311986  7.178006    -0.174269    0.158632   -0.004656
      0.000000  2.374853  8.821994    -0.174269    0.158632   -0.004656
      4.113367  2.374853  8.821994    -0.174269    0.158632   -0.004656
      8.226733  2.374853  8.821994    -0.174269    0.158632   -0.004656
     -2.056683  5.937133  8.821994    -0.174269    0.158632   -0.004656
      2.056683  5.937133  8.821994    -0.174269    0.158632   -0.004656
      6.170050  5.937133  8.821994    -0.174269    0.158632   -0.004656
     -4.113367  9.499413  8.821994    -0.174269    0.158632   -0.004656
      0.000000  9.499413  8.821994    -0.174269    0.158632   -0.004656
      4.113367  9.499413  8.821994    -0.174269    0.158632   -0.004656

  53 f/i=    0.000000 THz     0.000001 2PiTHz    0.000006 cm-1     0.000001 meV
             X         Y         Z           dx          dy          dz
      2.056683  1.187427  7.178006    -0.147947   -0.164892   -0.080484
      6.170050  1.187427  7.178006    -0.147947   -0.164892   -0.080484
     10.283416  1.187427  7.178006    -0.147947   -0.164892   -0.080484
      0.000000  4.749707  7.178006    -0.147947   -0.164892   -0.080484
      4.113367  4.749707  7.178006    -0.147947   -0.164892   -0.080484
      8.226733  4.749707  7.178006    -0.147947   -0.164892   -0.080484
     -2.056683  8.311986  7.178006    -0.147947   -0.164892   -0.080484
      2.056683  8.311986  7.178006    -0.147947   -0.164892   -0.080484
      6.170050  8.311986  7.178006    -0.147947   -0.164892   -0.080484
      0.000000  2.374853  8.821994    -0.147947   -0.164892   -0.080484
      4.113367  2.374853  8.821994    -0.147947   -0.164892   -0.080484
      8.226733  2.374853  8.821994    -0.147947   -0.164892   -0.080484
     -2.056683  5.937133  8.821994    -0.147947   -0.164892   -0.080484
      2.056683  5.937133  8.821994    -0.147947   -0.164892   -0.080484
      6.170050  5.937133  8.821994    -0.147947   -0.164892   -0.080484
     -4.113367  9.499413  8.821994    -0.147947   -0.164892   -0.080484
      0.000000  9.499413  8.821994    -0.147947   -0.164892   -0.080484
      4.113367  9.499413  8.821994    -0.147947   -0.164892   -0.080484

  54 f/i=    0.000000 THz     0.000001 2PiTHz    0.000007 cm-1     0.000001 meV
             X         Y         Z           dx          dy          dz
      2.056683  1.187427  7.178006     0.057425    0.056585   -0.221486
      6.170050  1.187427  7.178006     0.057425    0.056585   -0.221486
     10.283416  1.187427  7.178006     0.057425    0.056585   -0.221486
      0.000000  4.749707  7.178006     0.057425    0.056585   -0.221486
      4.113367  4.749707  7.178006     0.057425    0.056585   -0.221486
      8.226733  4.749707  7.178006     0.057425    0.056585   -0.221486
     -2.056683  8.311986  7.178006     0.057425    0.056585   -0.221486
      2.056683  8.311986  7.178006     0.057425    0.056585   -0.221486
      6.170050  8.311986  7.178006     0.057425    0.056585   -0.221486
      0.000000  2.374853  8.821994     0.057425    0.056585   -0.221486
      4.113367  2.374853  8.821994     0.057425    0.056585   -0.221486
      8.226733  2.374853  8.821994     0.057425    0.056585   -0.221486
     -2.056683  5.937133  8.821994     0.057425    0.056585   -0.221486
      2.056683  5.937133  8.821994     0.057425    0.056585   -0.221486
      6.170050  5.937133  8.821994     0.057425    0.056585   -0.221486
     -4.113367  9.499413  8.821994     0.057425    0.056585   -0.221486
      0.000000  9.499413  8.821994     0.057425    0.056585   -0.221486
      4.113367  9.499413  8.821994     0.057425    0.056585   -0.221486

 ELASTIC MODULI CONTR FROM IONIC RELAXATION (kBar)
 Direction    XX          YY          ZZ          XY          YZ          ZX
 XX         -50.9195    -16.8997    -75.3189      0.0000    -42.1157      0.0000
 YY         -16.8997    -50.9195    -75.3189      0.0000     42.1157      0.0000
 ZZ         -75.3189    -75.3189   -167.2960      0.0000      0.0000      0.0000
 XY           0.0000      0.0000      0.0000    -17.0099     -0.0000    -42.5052
 YZ         -42.1157     42.1157      0.0000     -0.0000   -104.2766     -0.0000
 ZX          -0.0000      0.0000      0.0000    -42.5052     -0.0000   -106.2141

 total charge

# of ion       s       p       d       f       tot
    1        1.581   1.846   0.079   0.012   3.518
    2        1.581   1.846   0.079   0.012   3.518
    3        1.581   1.846   0.079   0.012   3.518
    4        1.581   1.846   0.079   0.012   3.518
    5        1.581   1.846   0.079   0.012   3.518
    6        1.581   1.846   0.079   0.012   3.518
    7        1.581   1.846   0.079   0.012   3.518
    8        1.581   1.846   0.079   0.012   3.518
    9        1.581   1.846   0.079   0.012   3.518
   10        1.581   1.846   0.079   0.012   3.518
   11        1.581   1.846   0.079   0.012   3.518
   12        1.581   1.846   0.079   0.012   3.518
   13        1.581   1.846   0.079   0.012   3.518
   14        1.581   1.846   0.079   0.012   3.518
   15        1.581   1.846   0.079   0.012   3.518
   16        1.581   1.846   0.079   0.012   3.518
   17        1.581   1.846   0.079   0.012   3.518
   18        1.581   1.846   0.079   0.012   3.518
tot         28.457  33.229   1.419   0.222  63.328