 vasp.6.4.2 20Jul23 (build Nov 14 2023 12:59:38) complex

 executed on             LinuxIFC date 2023.12.16  19:17:01

 INCAR:
   ENCUT = 344.1380
   ALGO = Normal
   NELM = 200
   NELMIN = 6
   NELMDL = -12
   EDIFF = 1.0E-6
   AMIX = 0.1
   BMIX = 0.0001
   PREC = Accurate
   IVDW = 0
   ISPIN = 1
   ADDGRID = .TRUE.
   LASPH = .TRUE.
   NSW = 30
   EDIFFG = -0.010
   IBRION = 2
   ISIF = 3
   POTIM = 0.5
   STRESSTYPE = 2
   ISMEAR = 0
   SIGMA = 0.01
   LORBIT = 10
   NEDOS = 6001
   NWRITE = 1
   LWAVE = .FALSE.
   LCHARG = .FALSE.
   NCORE = 4
   LPLANE = .TRUE.

 POTCAR:    PAW_PBE Sb_GW 21Mar2012
 POTCAR:    PAW_PBE Sb_GW 21Mar2012

  PAW_PBE Sb_GW 21Mar2012               :

 POSCAR: pnictogen honeycomb monolayer
  positions in direct lattice
  velocities in cartesian coordinates
 exchange correlation table for  LEXCH =        8
   RHO(1)=    0.500       N(1)  =     2000
   RHO(2)=  100.500       N(2)  =     4000

 ion  position               nearest neighbor table
   1  0.667  0.333  0.449-   2 2.89   2 2.89   2 2.89
   2  0.333  0.667  0.551-   1 2.89   1 2.89   1 2.89

  LATTYP: Found a hexagonal cell.
 ALAT       =     4.1133665497
 C/A-ratio  =     3.8897578922

  Lattice vectors:

 A1 = (   4.1133665497,   0.0000000000,   0.0000000000)
 A2 = (  -2.0566832748,   3.5622799271,   0.0000000000)
 A3 = (   0.0000000000,   0.0000000000,  16.0000000000)

Analysis of symmetry for initial positions (statically):
 Subroutine PRICEL returns:
 Original cell was already a primitive cell.

 Routine SETGRP: Setting up the symmetry group for a
 hexagonal supercell.

 Subroutine GETGRP returns: Found 12 space group operations
 (whereof 12 operations were pure point group operations)
 out of a pool of 24 trial point group operations.

The static configuration has the point symmetry D_3d.

Analysis of symmetry for dynamics (positions and initial velocities):
 Subroutine PRICEL returns:
 Original cell was already a primitive cell.

 Routine SETGRP: Setting up the symmetry group for a
 hexagonal supercell.

 Subroutine GETGRP returns: Found 12 space group operations
 (whereof 12 operations were pure point group operations)
 out of a pool of 24 trial point group operations.

The dynamic configuration has the point symmetry D_3d.

 Subroutine INISYM returns: Found 12 space group operations
 (whereof 12 operations are pure point group operations),
 and found     1 'primitive' translations

                                     Primitive cell

  volume of cell :     234.4474

  direct lattice vectors                    reciprocal lattice vectors
     4.113366550  0.000000000  0.000000000     0.243109868  0.140359548  0.000000000
    -2.056683275  3.562279927  0.000000000     0.000000000  0.280719096  0.000000000
     0.000000000  0.000000000 16.000000000     0.000000000  0.000000000  0.062500000

  length of vectors
     4.113366550  4.113366550 16.000000000     0.280719096  0.280719096  0.062500000

  position of ions in fractional coordinates (direct lattice)
     0.666666667  0.333333333  0.448625398
     0.333333333  0.666666667  0.551374602

  ion indices of the primitive-cell ions
   primitive index   ion index
                 1           1
                 2           2

 KPOINTS: Fully automatic mesh

Automatic generation of k-mesh.
 Grid dimensions derived from RKLEN:
 generate k-points for:   11   11    3

 Generating k-lattice:

  Cartesian coordinates                     Fractional coordinates (reciprocal lattice)
     0.022100897  0.012759959  0.000000000     0.090909091  0.000000000  0.000000000
     0.000000000  0.025519918  0.000000000     0.000000000  0.090909091  0.000000000
     0.000000000  0.000000000  0.020833333     0.000000000  0.000000000  0.333333333

  Length of vectors
     0.025519918  0.025519918  0.020833333

  Shift w.r.t. Gamma in fractional coordinates (k-lattice)
     0.000000000  0.000000000  0.000000000

 Subroutine IBZKPT returns following result:

 Found     42 irreducible k-points:

 Following reciprocal coordinates:
            Coordinates               Weight
  0.000000  0.000000  0.000000      1.000000
  0.090909  0.000000  0.000000      6.000000
  0.181818  0.000000  0.000000      6.000000
  0.272727  0.000000  0.000000      6.000000
  0.363636  0.000000  0.000000      6.000000
  0.454545  0.000000  0.000000      6.000000
  0.090909  0.090909  0.000000      6.000000
  0.181818  0.090909  0.000000     12.000000
  0.272727  0.090909  0.000000     12.000000
  0.363636  0.090909  0.000000     12.000000
  0.454545  0.090909  0.000000      6.000000
  0.181818  0.181818  0.000000      6.000000
  0.272727  0.181818  0.000000     12.000000
  0.363636  0.181818  0.000000     12.000000
  0.272727  0.272727  0.000000      6.000000
  0.363636  0.272727  0.000000      6.000000
  0.000000  0.000000  0.333333      2.000000
  0.090909  0.000000  0.333333      6.000000
  0.000000  0.090909  0.333333      6.000000
  0.181818  0.000000  0.333333      6.000000
  0.000000  0.181818  0.333333      6.000000
  0.272727  0.000000  0.333333      6.000000
  0.000000  0.272727  0.333333      6.000000
  0.363636  0.000000  0.333333      6.000000
  0.000000  0.363636  0.333333      6.000000
  0.454545  0.000000  0.333333      6.000000
  0.000000  0.454545  0.333333      6.000000
  0.090909  0.090909  0.333333     12.000000
  0.181818  0.090909  0.333333     12.000000
 -0.090909  0.272727  0.333333     12.000000
  0.272727  0.090909  0.333333     12.000000
 -0.090909  0.363636  0.333333     12.000000
  0.363636  0.090909  0.333333     12.000000
 -0.090909  0.454545  0.333333     12.000000
  0.454545  0.090909  0.333333     12.000000
  0.181818  0.181818  0.333333     12.000000
  0.272727  0.181818  0.333333     12.000000
 -0.181818  0.454545  0.333333     12.000000
  0.363636  0.181818  0.333333     12.000000
 -0.181818 -0.454545  0.333333     12.000000
  0.272727  0.272727  0.333333     12.000000
  0.363636  0.272727  0.333333     12.000000

 Following cartesian coordinates:
            Coordinates               Weight
  0.000000  0.000000  0.000000      1.000000
  0.022101  0.012760  0.000000      6.000000
  0.044202  0.025520  0.000000      6.000000
  0.066303  0.038280  0.000000      6.000000
  0.088404  0.051040  0.000000      6.000000
  0.110504  0.063800  0.000000      6.000000
  0.022101  0.038280  0.000000      6.000000
  0.044202  0.051040  0.000000     12.000000
  0.066303  0.063800  0.000000     12.000000
  0.088404  0.076560  0.000000     12.000000
  0.110504  0.089320  0.000000      6.000000
  0.044202  0.076560  0.000000      6.000000
  0.066303  0.089320  0.000000     12.000000
  0.088404  0.102080  0.000000     12.000000
  0.066303  0.114840  0.000000      6.000000
  0.088404  0.127600  0.000000      6.000000
  0.000000  0.000000  0.020833      2.000000
  0.022101  0.012760  0.020833      6.000000
  0.000000  0.025520  0.020833      6.000000
  0.044202  0.025520  0.020833      6.000000
  0.000000  0.051040  0.020833      6.000000
  0.066303  0.038280  0.020833      6.000000
  0.000000  0.076560  0.020833      6.000000
  0.088404  0.051040  0.020833      6.000000
  0.000000  0.102080  0.020833      6.000000
  0.110504  0.063800  0.020833      6.000000
  0.000000  0.127600  0.020833      6.000000
  0.022101  0.038280  0.020833     12.000000
  0.044202  0.051040  0.020833     12.000000
 -0.022101  0.063800  0.020833     12.000000
  0.066303  0.063800  0.020833     12.000000
 -0.022101  0.089320  0.020833     12.000000
  0.088404  0.076560  0.020833     12.000000
 -0.022101  0.114840  0.020833     12.000000
  0.110504  0.089320  0.020833     12.000000
  0.044202  0.076560  0.020833     12.000000
  0.066303  0.089320  0.020833     12.000000
 -0.044202  0.102080  0.020833     12.000000
  0.088404  0.102080  0.020833     12.000000
 -0.044202 -0.153120  0.020833     12.000000
  0.066303  0.114840  0.020833     12.000000
  0.088404  0.127600  0.020833     12.000000

 SYSTEM =  unknown system
 POSCAR =  pnictogen honeycomb monolayer

 Startparameter for this run:
   NWRITE =      1    write-flag & timer
   PREC   = accura    normal or accurate (medium, high low for compatibility)
   ISTART =      0    job   : 0-new  1-cont  2-samecut
   ICHARG =      2    charge: 1-file 2-atom 10-const
   ISPIN  =      1    spin polarized calculation?
   LNONCOLLINEAR =      F non collinear calculations
   LSORBIT =      F    spin-orbit coupling
   INIWAV =      1    electr: 0-lowe 1-rand  2-diag
   LASPH  =      T    aspherical Exc in radial PAW
 Electronic Relaxation 1
   ENCUT  =  344.1 eV  25.29 Ry    5.03 a.u.   6.22  6.22 24.20*2*pi/ulx,y,z
   ENINI  =  344.1     initial cutoff
   ENAUG  =  560.6 eV  augmentation charge cutoff
   NELM   =    200;   NELMIN=  6; NELMDL=-12     # of ELM steps
   EDIFF  = 0.1E-05   stopping-criterion for ELM
   LREAL  =      F    real-space projection
   NLSPLINE    = F    spline interpolate recip. space projectors
   LCOMPAT=      F    compatible to vasp.4.4
   GGA_COMPAT  = T    GGA compatible to vasp.4.4-vasp.4.6
   LMAXPAW     = -100 max onsite density
   LMAXMIX     =    2 max onsite mixed and CHGCAR
   VOSKOWN=      0    Vosko Wilk Nusair interpolation
   ROPT   =    0.00000
 Ionic relaxation
   EDIFFG = -.1E-01   stopping-criterion for IOM
   NSW    =     30    number of steps for IOM
   NBLOCK =      1;   KBLOCK =     30    inner block; outer block
   IBRION =      2    ionic relax: 0-MD 1-quasi-New 2-CG
   NFREE  =      1    steps in history (QN), initial steepest desc. (CG)
   ISIF   =      3    stress and relaxation
   IWAVPR =     11    prediction:  0-non 1-charg 2-wave 3-comb
   ISYM   =      2    0-nonsym 1-usesym 2-fastsym
   LCORR  =      T    Harris-Foulkes like correction to forces

   POTIM  = 0.5000    time-step for ionic-motion
   TEIN   =    0.0    initial temperature
   TEBEG  =    0.0;   TEEND  =   0.0 temperature during run
   SMASS  =  -3.00    Nose mass-parameter (am)
   estimated Nose-frequenzy (Omega)   =  0.10E-29 period in steps = 0.13E+47 mass=  -0.387E-27a.u.
   SCALEE = 1.0000    scale energy and forces
   NPACO  =    256;   APACO  = 10.0  distance and # of slots for P.C.
   PSTRESS=    0.0 pullay stress

  Mass of Ions in am
   POMASS = 121.75
  Ionic Valenz
   ZVAL   =   5.00
  Atomic Wigner-Seitz radii
  virtual crystal weights
   VCA    =   1.00
   NELECT =      10.0000    total number of electrons
   NUPDOWN=      -1.0000    fix difference up-down

 DOS related values:
   EMIN   =  10.00;   EMAX   =-10.00  energy-range for DOS
   EFERMI =   0.00;   METHOD = LEGACY
   ISMEAR =     0;   SIGMA  =   0.01  broadening in eV -4-tet -1-fermi 0-gaus

 Electronic relaxation 2 (details)
   IALGO  =     38    algorithm
   LDIAG  =      T    sub-space diagonalisation (order eigenvalues)
   LSUBROT=      F    optimize rotation matrix (better conditioning)
   TURBO    =      0    0=normal 1=particle mesh
   IRESTART =      0    0=no restart 2=restart with 2 vectors
   NREBOOT  =      0    no. of reboots
   NMIN     =      0    reboot dimension
   EREF     =   0.00    reference energy to select bands
   IMIX   =      4    mixing-type and parameters
     AMIX     =   0.10;   BMIX     =  0.00
     AMIX_MAG =   0.40;   BMIX_MAG =  0.00
[...]
 Variant of blocked Davidson
 Davidson routine will perform the subspace rotation
 perform sub-space diagonalisation
    after iterative eigenvector-optimisation
 modified Broyden-mixing scheme, WC =      100.0
 initial mixing is a Kerker type mixing with AMIX =  0.1000 and BMIX =      0.0001
 Hartree-type preconditioning will be used
 using additional bands            7
 reciprocal scheme for non local part
 use partial core corrections
 calculate Harris-corrections to forces
   (improved forces if not selfconsistent)
 use gradient corrections
 use of overlap-Matrix (Vanderbilt PP)
 Gauss-broadening in eV      SIGMA  =   0.01

  energy-cutoff  :      344.14
  volume of cell :      234.45
      direct lattice vectors                 reciprocal lattice vectors
     4.113366550  0.000000000  0.000000000     0.243109868  0.140359548  0.000000000
    -2.056683275  3.562279927  0.000000000     0.000000000  0.280719096  0.000000000
     0.000000000  0.000000000 16.000000000     0.000000000  0.000000000  0.062500000

[...]

 k-points in units of 2pi/SCALE and weight: Fully automatic mesh
   0.00000000  0.00000000  0.00000000       0.003
   0.02210090  0.01275996  0.00000000       0.017
   0.04420179  0.02551992  0.00000000       0.017
   0.06630269  0.03827988  0.00000000       0.017
   0.08840359  0.05103984  0.00000000       0.017
   0.11050449  0.06379979  0.00000000       0.017
   0.02210090  0.03827988  0.00000000       0.017
   0.04420179  0.05103984  0.00000000       0.033
   0.06630269  0.06379979  0.00000000       0.033
   0.08840359  0.07655975  0.00000000       0.033
   0.11050449  0.08931971  0.00000000       0.017
   0.04420179  0.07655975  0.00000000       0.017
   0.06630269  0.08931971  0.00000000       0.033
   0.08840359  0.10207967  0.00000000       0.033
   0.06630269  0.11483963  0.00000000       0.017
   0.08840359  0.12759959  0.00000000       0.017
   0.00000000  0.00000000  0.02083333       0.006
   0.02210090  0.01275996  0.02083333       0.017
   0.00000000  0.02551992  0.02083333       0.017
   0.04420179  0.02551992  0.02083333       0.017
   0.00000000  0.05103984  0.02083333       0.017
   0.06630269  0.03827988  0.02083333       0.017
   0.00000000  0.07655975  0.02083333       0.017
   0.08840359  0.05103984  0.02083333       0.017
   0.00000000  0.10207967  0.02083333       0.017
   0.11050449  0.06379979  0.02083333       0.017
   0.00000000  0.12759959  0.02083333       0.017
   0.02210090  0.03827988  0.02083333       0.033
   0.04420179  0.05103984  0.02083333       0.033
  -0.02210090  0.06379979  0.02083333       0.033
   0.06630269  0.06379979  0.02083333       0.033
  -0.02210090  0.08931971  0.02083333       0.033
   0.08840359  0.07655975  0.02083333       0.033
  -0.02210090  0.11483963  0.02083333       0.033
   0.11050449  0.08931971  0.02083333       0.033
   0.04420179  0.07655975  0.02083333       0.033
   0.06630269  0.08931971  0.02083333       0.033
  -0.04420179  0.10207967  0.02083333       0.033
   0.08840359  0.10207967  0.02083333       0.033
  -0.04420179 -0.15311951  0.02083333       0.033
   0.06630269  0.11483963  0.02083333       0.033
   0.08840359  0.12759959  0.02083333       0.033

 k-points in reciprocal lattice and weights: Fully automatic mesh
   0.00000000  0.00000000  0.00000000       0.003
   0.09090909  0.00000000  0.00000000       0.017
   0.18181818  0.00000000  0.00000000       0.017
   0.27272727  0.00000000  0.00000000       0.017
   0.36363636  0.00000000  0.00000000       0.017
   0.45454545  0.00000000  0.00000000       0.017
   0.09090909  0.09090909  0.00000000       0.017
   0.18181818  0.09090909  0.00000000       0.033
   0.27272727  0.09090909  0.00000000       0.033
   0.36363636  0.09090909  0.00000000       0.033
   0.45454545  0.09090909  0.00000000       0.017
   0.18181818  0.18181818  0.00000000       0.017
   0.27272727  0.18181818  0.00000000       0.033
   0.36363636  0.18181818  0.00000000       0.033
   0.27272727  0.27272727  0.00000000       0.017
   0.36363636  0.27272727  0.00000000       0.017
   0.00000000  0.00000000  0.33333333       0.006
   0.09090909  0.00000000  0.33333333       0.017
   0.00000000  0.09090909  0.33333333       0.017
   0.18181818  0.00000000  0.33333333       0.017
   0.00000000  0.18181818  0.33333333       0.017
   0.27272727  0.00000000  0.33333333       0.017
   0.00000000  0.27272727  0.33333333       0.017
   0.36363636  0.00000000  0.33333333       0.017
   0.00000000  0.36363636  0.33333333       0.017
   0.45454545  0.00000000  0.33333333       0.017
   0.00000000  0.45454545  0.33333333       0.017
   0.09090909  0.09090909  0.33333333       0.033
   0.18181818  0.09090909  0.33333333       0.033
  -0.09090909  0.27272727  0.33333333       0.033
   0.27272727  0.09090909  0.33333333       0.033
  -0.09090909  0.36363636  0.33333333       0.033
   0.36363636  0.09090909  0.33333333       0.033
  -0.09090909  0.45454545  0.33333333       0.033
   0.45454545  0.09090909  0.33333333       0.033
   0.18181818  0.18181818  0.33333333       0.033
   0.27272727  0.18181818  0.33333333       0.033
  -0.18181818  0.45454545  0.33333333       0.033
   0.36363636  0.18181818  0.33333333       0.033
  -0.18181818 -0.45454545  0.33333333       0.033
   0.27272727  0.27272727  0.33333333       0.033
   0.36363636  0.27272727  0.33333333       0.033

 position of ions in fractional coordinates (direct lattice)
   0.66666667  0.33333333  0.44862540
   0.33333333  0.66666667  0.55137460

 position of ions in cartesian coordinates  (Angst):
   2.05668327  1.18742664  7.17800637
   0.00000000  2.37485328  8.82199363

 k-point   1 :   0.0000 0.0000 0.0000  plane waves:    3421
 k-point   2 :   0.0909 0.0000 0.0000  plane waves:    3397
 k-point   3 :   0.1818 0.0000 0.0000  plane waves:    3389
 k-point   4 :   0.2727 0.0000 0.0000  plane waves:    3381
 k-point   5 :   0.3636 0.0000 0.0000  plane waves:    3409
 k-point   6 :   0.4545 0.0000 0.0000  plane waves:    3398
 k-point   7 :   0.0909 0.0909 0.0000  plane waves:    3379
 k-point   8 :   0.1818 0.0909 0.0000  plane waves:    3394
 k-point   9 :   0.2727 0.0909 0.0000  plane waves:    3390
 k-point  10 :   0.3636 0.0909 0.0000  plane waves:    3408
 k-point  11 :   0.4545 0.0909 0.0000  plane waves:    3412
 k-point  12 :   0.1818 0.1818 0.0000  plane waves:    3392
 k-point  13 :   0.2727 0.1818 0.0000  plane waves:    3399
 k-point  14 :   0.3636 0.1818 0.0000  plane waves:    3399
 k-point  15 :   0.2727 0.2727 0.0000  plane waves:    3402
 k-point  16 :   0.3636 0.2727 0.0000  plane waves:    3412
 k-point  17 :   0.0000 0.0000 0.3333  plane waves:    3414
 k-point  18 :   0.0909 0.0000 0.3333  plane waves:    3405
 k-point  19 :   0.0000 0.0909 0.3333  plane waves:    3405
 k-point  20 :   0.1818 0.0000 0.3333  plane waves:    3382
 k-point  21 :   0.0000 0.1818 0.3333  plane waves:    3382
 k-point  22 :   0.2727 0.0000 0.3333  plane waves:    3393
 k-point  23 :   0.0000 0.2727 0.3333  plane waves:    3393
 k-point  24 :   0.3636 0.0000 0.3333  plane waves:    3405
 k-point  25 :   0.0000 0.3636 0.3333  plane waves:    3405
 k-point  26 :   0.4545 0.0000 0.3333  plane waves:    3401
 k-point  27 :   0.0000 0.4545 0.3333  plane waves:    3401
 k-point  28 :   0.0909 0.0909 0.3333  plane waves:    3388
 k-point  29 :   0.1818 0.0909 0.3333  plane waves:    3395
 k-point  30 :  -0.0909 0.2727 0.3333  plane waves:    3395
 k-point  31 :   0.2727 0.0909 0.3333  plane waves:    3407
 k-point  32 :  -0.0909 0.3636 0.3333  plane waves:    3407
 k-point  33 :   0.3636 0.0909 0.3333  plane waves:    3403
 k-point  34 :  -0.0909 0.4545 0.3333  plane waves:    3403
 k-point  35 :   0.4545 0.0909 0.3333  plane waves:    3409
 k-point  36 :   0.1818 0.1818 0.3333  plane waves:    3395
 k-point  37 :   0.2727 0.1818 0.3333  plane waves:    3403
 k-point  38 :  -0.1818 0.4545 0.3333  plane waves:    3403
 k-point  39 :   0.3636 0.1818 0.3333  plane waves:    3395
 k-point  40 :  -0.1818-0.4545 0.3333  plane waves:    3395
 k-point  41 :   0.2727 0.2727 0.3333  plane waves:    3393
 k-point  42 :   0.3636 0.2727 0.3333  plane waves:    3385

 maximum and minimum number of plane-waves per node :       877      834

 maximum number of plane-waves:      3421
 maximum index in each direction:
   IXMAX=    6   IYMAX=    6   IZMAX=   24
   IXMIN=   -6   IYMIN=   -6   IZMIN=  -24

 parallel 3D FFT for wavefunctions:
    minimum data exchange during FFTs selected (reduces bandwidth)
 parallel 3D FFT for charge:
    minimum data exchange during FFTs selected (reduces bandwidth)

 Broyden mixing: mesh for mixing (old mesh)
   NGX = 13   NGY = 13   NGZ = 49
  (NGX  = 56   NGY  = 56   NGZ  =196)
  gives a total of   8281 points

 initial charge density was supplied:
 charge density of overlapping atoms calculated
 number of electron      10.0000000 magnetization
 keeping initial charge density in first step

 Maximum index for augmentation-charges         8728 (set IRDMAX)

 First call to EWALD:  gamma=   0.287
 Maximum number of real-space cells 4x 4x 1
 Maximum number of reciprocal cells 2x 2x 6

--------------------------------------- Ionic step        1  -------------------------------------------

--------------------------------------- Iteration      1(   1)  ---------------------------------------

 eigenvalue-minimisations  :  1008
 total energy-change (2. order) : 0.4632631E+02  (-0.2277130E+03)
 number of electron      10.0000000 magnetization
 augmentation part       10.0000000 magnetization

 Free energy of the ion-electron system (eV)
  alpha Z        PSCENC =         2.97593478
  Ewald energy   TEWEN  =       213.91894841
  -Hartree energ DENC   =      -467.82089709
  -exchange      EXHF   =         0.00000000
  -V(xc)+E(xc)   XCENC  =       -92.70009870
  PAW double counting   =       327.35893868     -219.44694627
  entropy T*S    EENTRO =        -0.00026751
  eigenvalues    EBANDS =       -17.85968621
  atomic energy  EATOM  =       299.90038058
  Solvation  Ediel_sol  =         0.00000000
  free energy    TOTEN  =        46.32630667 eV

  energy without entropy =       46.32657418  energy(sigma->0) =       46.32644042

[...]

 eigenvalue-minimisations  :  1632
 total energy-change (2. order) :-0.5083545E+02  (-0.4848644E+02)
 number of electron      10.0000000 magnetization
 augmentation part       10.0000000 magnetization

[...]

 eigenvalue-minimisations  :   740
 total energy-change (2. order) :-0.4149570E-10  (-0.3020429E-10)
 number of electron      10.0000000 magnetization
 augmentation part       -1.6393083 magnetization

 Broyden mixing:
  rms(total) = 0.15915E+00    rms(broyden)= 0.15913E+00
  rms(prec ) = 0.18343E+00
  weight for this iteration     100.00

[...]

 eigenvalues of (default mixing * dielectric matrix)
  average eigenvalue GAMMA=   8.9741
  8.9741

[...]

 Broyden mixing:
  rms(total) = 0.55701E-03    rms(broyden)= 0.55701E-03
  rms(prec ) = 0.61198E-03
  weight for this iteration     100.00

 eigenvalues of (default mixing * dielectric matrix)
  average eigenvalue GAMMA=   5.0586
 10.3936  9.7440  7.4181  4.7911  0.9766  1.0433  1.0433

[...]

--------------------------------------- Iteration      1(  20)  ---------------------------------------

 eigenvalue-minimisations  :  1192
 total energy-change (2. order) : 0.9421433E-06  (-0.2565876E-06)
 number of electron      10.0000000 magnetization
 augmentation part       -1.6242040 magnetization

 Free energy of the ion-electron system (eV)
  alpha Z        PSCENC =         2.97593478
  Ewald energy   TEWEN  =       213.91894841
  -Hartree energ DENC   =      -472.86392363
  -exchange      EXHF   =         0.00000000
  -V(xc)+E(xc)   XCENC  =       -92.28792144
  PAW double counting   =       363.39625755     -255.62337708
  entropy T*S    EENTRO =        -0.00000000
  eigenvalues    EBANDS =       -67.54063550
  atomic energy  EATOM  =       299.90038058
  Solvation  Ediel_sol  =         0.00000000
  free energy    TOTEN  =        -8.12433634 eV

  energy without entropy =       -8.12433634  energy(sigma->0) =       -8.12433634

 average (electrostatic) potential at core
  the test charge radii are     1.1712
  (the norm of the test charge is              1.0000)
       1 -80.9076       2 -80.9076

 E-fermi :  -2.2424     XC(G=0):  -3.3484     alpha+bet : -2.6626

 Fermi energy:        -2.2424403349

 k-point     1 :       0.0000    0.0000    0.0000
  band No.  band energies     occupation
      1     -13.5663      2.00000
      2      -8.5939      2.00000
      3      -2.8926      2.00000
      4      -2.2856      2.00000
      5      -2.2856      2.00000
      6      -0.7183      0.00000
      7       0.5053      0.00000
      8       0.5053      0.00000
      9       2.0888      0.00000
     10       2.1697      0.00000
     11       3.6333      0.00000
     12       4.5286      0.00000

[...]

 k-point    42 :       0.3636    0.2727    0.3333
  band No.  band energies     occupation
      1     -11.0486      2.00000
      2     -10.4909      2.00000
      3      -5.7366      2.00000
      4      -4.2772      2.00000
      5      -3.8874      2.00000
      6      -0.7061      0.00000
      7       1.1292      0.00000
      8       1.3245      0.00000
      9       4.2816      0.00000
     10       4.4626      0.00000
     11       5.2673      0.00000
     12       5.3257      0.00000

 soft charge-density along one line, spin component           1
         0         1         2         3         4         5         6         7         8         9
 total charge-density along one line

------------------------ aborting loop because EDIFF is reached ----------------------------------------

 total charge

# of ion       s       p       d       f       tot
    1        1.579   1.828   0.078   0.013   3.498
    2        1.579   1.828   0.078   0.013   3.498
tot          3.159   3.656   0.156   0.026   6.997

  FORCE on cell =-STRESS in cart. coord.  units (eV):
  Direction    XX          YY          ZZ          XY          YZ          ZX
  Alpha Z     2.97593     2.97593     2.97593
  Ewald     422.06021   422.06021  -630.20145    -0.00000     0.00000    -0.00000
  Hartree   461.75874   461.75874  -450.65199    -0.00000    -0.00000    -0.00000
  E(xc)     -39.91358   -39.91358   -40.33749    -0.00000    -0.00000     0.00000
  Local   -1008.36539 -1008.36539   952.18478    -0.00000    -0.00000     0.00000
  n-local   128.56278   128.74077   130.13131    -0.37502     0.47590    -0.80098
  augment   -32.90031   -32.90031   -33.39388     0.00000     0.00000    -0.00000
  Kinetic    64.92939    66.56399    69.28250     0.37676     0.15554    -0.97198
  Fock        0.00000     0.00000     0.00000     0.00000     0.00000     0.00000
  Total       0.01406     0.01406    -0.01030     0.00000     0.00000     0.00000
  in kB       0.09609     0.09609    -0.07037     0.00000     0.00000     0.00000

 VOLUME and BASIS-vectors are now :
  energy-cutoff  :      344.14
  volume of cell :      234.45
      direct lattice vectors                 reciprocal lattice vectors
     4.113366550  0.000000000  0.000000000     0.243109868  0.140359548  0.000000000
    -2.056683275  3.562279927  0.000000000     0.000000000  0.280719096  0.000000000
     0.000000000  0.000000000 16.000000000     0.000000000  0.000000000  0.062500000

  length of vectors
     4.113366550  4.113366550 16.000000000     0.280719096  0.280719096  0.062500000

 FORCES acting on ions
    electron-ion (+dipol)            ewald-force                    non-local-force                 convergence-correction
   0.279E-07 -.197E-07 0.940E+02   0.188E-11 -.109E-11 -.102E+03   -.347E-16 0.139E-16 0.755E+01   -.178E-09 0.103E-09 -.299E-03
   -.279E-07 0.197E-07 -.940E+02   -.188E-11 0.110E-11 0.102E+03   0.208E-16 -.416E-16 -.755E+01   0.178E-09 -.103E-09 0.299E-03
   -.583E-13 0.800E-13 -.366E-11   0.708E-15 0.320E-14 0.000E+00   -.139E-16 -.278E-16 0.000E+00   -.189E-16 -.290E-15 -.113E-13

 POSITION                                       TOTAL-FORCE (eV/Angst)
      2.05668      1.18743      7.17801         0.000000      0.000000      0.002406
      0.00000      2.37485      8.82199        -0.000000     -0.000000     -0.002406
    total drift:                               -0.000000      0.000000     -0.000000

  FREE ENERGIE OF THE ION-ELECTRON SYSTEM (eV)
  free  energy   TOTEN  =        -8.12433634 eV

  energy  without entropy=       -8.12433634  energy(sigma->0) =       -8.12433634

 reached required accuracy - stopping structural energy minimisation

 total charge

# of ion       s       p       d       f       tot
    1        1.579   1.828   0.078   0.013   3.498
    2        1.579   1.828   0.078   0.013   3.498
tot          3.159   3.656   0.156   0.026   6.997