 vasp.6.4.2 20Jul23 (build Nov 14 2023 12:59:38) complex

 executed on             LinuxIFC date 2023.12.18  09:42:05

 INCAR:
   ENCUT = 193.577625
   ALGO = Normal
   NELM = 200
   NELMIN = 6
   NELMDL = -12
   EDIFF = 1.0E-6
   AMIX = 0.1
   BMIX = 0.0001
   PREC = Accurate
   IVDW = 0
   ISPIN = 1
   ADDGRID = .TRUE.
   LASPH = .TRUE.
   LEPSILON = .TRUE.
   NSW = 0
   EDIFFG = -0.010
   IBRION = 2
   ISIF = -1
   POTIM = 0.5
   STRESSTYPE = 2
   ISMEAR = 0
   SIGMA = 0.01
   LORBIT = 10
   NEDOS = 6001
   NWRITE = 1
   LWAVE = .FALSE.
   LCHARG = .FALSE.
   LPLANE = .TRUE.

 POTCAR:    PAW_PBE Sb_GW 21Mar2012
|           W    W    AA    RRRRR   N    N  II  N    N   GGGG   !!!           |
|           W    W   A  A   R    R  NN   N  II  NN   N  G    G  !!!           |
|           W    W  A    A  R    R  N N  N  II  N N  N  G       !!!           |
|           W WW W  AAAAAA  RRRRR   N  N N  II  N  N N  G  GGG   !            |
|           WW  WW  A    A  R   R   N   NN  II  N   NN  G    G                |
|           W    W  A    A  R    R  N    N  II  N    N   GGGG   !!!           |
|     For optimal performance we recommend to set                             |
|       NCORE = 2 up to number-of-cores-per-socket                            |
|     This setting can greatly improve the performance of VASP for DFT.       |
|     The default, NCORE=1 might be grossly inefficient on modern             |
|     multi-core architectures or massively parallel machines. Do your        |
|     Unfortunately you need to use the default for GW and RPA                |
|     calculations (for HF NCORE is supported but not extensively tested      |
|     yet).                                                                   |

 POTCAR:    PAW_PBE Sb_GW 21Mar2012

  PAW_PBE Sb_GW 21Mar2012               :

 POSCAR: pnictogen honeycomb monolayer
  positions in cartesian coordinates
 exchange correlation table for  LEXCH =        8
   RHO(1)=    0.500       N(1)  =     2000
   RHO(2)=  100.500       N(2)  =     4000

 ion  position               nearest neighbor table
   1  0.667  0.333  0.299-   2 2.89   2 2.89   2 2.89
   2  0.333  0.667  0.368-   1 2.89   1 2.89   1 2.89

  LATTYP: Found a hexagonal cell.
 ALAT       =     4.1133666039
 C/A-ratio  =     5.8346367613

  Lattice vectors:

 A1 = (   4.1133666039,   0.0000000000,   0.0000000000)
 A2 = (  -2.0566833019,   3.5622799740,   0.0000000000)
 A3 = (   0.0000000000,   0.0000000000,  24.0000000000)

Analysis of symmetry for initial positions (statically):
 Subroutine PRICEL returns:
 Original cell was already a primitive cell.

 Routine SETGRP: Setting up the symmetry group for a
 hexagonal supercell.

 Subroutine GETGRP returns: Found 12 space group operations
 (whereof  6 operations were pure point group operations)
 out of a pool of 24 trial point group operations.

The static configuration has the point symmetry C_3v.
 The point group associated with its full space group is D_3d.

Analysis of symmetry for dynamics (positions and initial velocities):
 Subroutine PRICEL returns:
 Original cell was already a primitive cell.

[...]

The dynamic configuration has the point symmetry C_3v.
 The point group associated with its full space group is D_3d.

 Subroutine INISYM returns: Found 12 space group operations
 (whereof  6 operations are pure point group operations),
 and found     1 'primitive' translations

                                     Primitive cell

  volume of cell :     351.6711

  direct lattice vectors                    reciprocal lattice vectors
     4.113366604  0.000000000  0.000000000     0.243109865  0.140359546  0.000000000
    -2.056683302  3.562279974  0.000000000     0.000000000  0.280719092  0.000000000
     0.000000000  0.000000000 24.000000000     0.000000000  0.000000000  0.041666667

  length of vectors
     4.113366604  4.113366604 24.000000000     0.280719092  0.280719092  0.041666667

  position of ions in fractional coordinates (direct lattice)
     0.666666686  0.333333343  0.299083590
     0.333333343  0.666666687  0.367583076

  ion indices of the primitive-cell ions
   primitive index   ion index
                 1           1
                 2           2

 KPOINTS: kpoints

Automatic generation of k-mesh.
 Grid dimensions read from file:
 generate k-points for:   11   11    1

 Generating k-lattice:

  Cartesian coordinates                     Fractional coordinates (reciprocal lattice)
     0.022100897  0.012759959  0.000000000     0.090909091  0.000000000  0.000000000
     0.000000000  0.025519917  0.000000000     0.000000000  0.090909091  0.000000000
     0.000000000  0.000000000  0.041666667     0.000000000  0.000000000  1.000000000

  Length of vectors
     0.025519917  0.025519917  0.041666667

  Shift w.r.t. Gamma in fractional coordinates (k-lattice)
     0.000000000  0.000000000  0.000000000

 Subroutine IBZKPT returns following result:

 Found     16 irreducible k-points:

 Following reciprocal coordinates:
            Coordinates               Weight
  0.000000  0.000000  0.000000      1.000000
  0.090909  0.000000  0.000000      6.000000
  0.181818  0.000000  0.000000      6.000000
  0.272727 -0.000000  0.000000      6.000000
  0.363636  0.000000  0.000000      6.000000
  0.454545  0.000000  0.000000      6.000000
  0.090909  0.090909  0.000000      6.000000
  0.181818  0.090909  0.000000     12.000000
  0.272727  0.090909  0.000000     12.000000
  0.363636  0.090909  0.000000     12.000000
  0.454545  0.090909  0.000000      6.000000
  0.181818  0.181818  0.000000      6.000000
  0.272727  0.181818  0.000000     12.000000
  0.363636  0.181818  0.000000     12.000000
  0.272727  0.272727  0.000000      6.000000
  0.363636  0.272727  0.000000      6.000000

 Following cartesian coordinates:
            Coordinates               Weight
  0.000000  0.000000  0.000000      1.000000
  0.022101  0.012760  0.000000      6.000000
  0.044202  0.025520  0.000000      6.000000
  0.066303  0.038280  0.000000      6.000000
  0.088404  0.051040  0.000000      6.000000
  0.110504  0.063800  0.000000      6.000000
  0.022101  0.038280  0.000000      6.000000
  0.044202  0.051040  0.000000     12.000000
  0.066303  0.063800  0.000000     12.000000
  0.088404  0.076560  0.000000     12.000000
  0.110504  0.089320  0.000000      6.000000
  0.044202  0.076560  0.000000      6.000000
  0.066303  0.089320  0.000000     12.000000
  0.088404  0.102080  0.000000     12.000000
  0.066303  0.114840  0.000000      6.000000
  0.088404  0.127600  0.000000      6.000000

 Subroutine IBZKPT_HF returns following result:

 Found    121 k-points in 1st BZ
 the following    121 k-points will be used (e.g. in the exchange kernel)
 Following reciprocal coordinates:   # in IRBZ
  0.000000  0.000000  0.000000    0.00826446   1 t-inv F
  0.090909  0.000000  0.000000    0.00826446   2 t-inv F
  0.181818  0.000000  0.000000    0.00826446   3 t-inv F
  0.272727 -0.000000  0.000000    0.00826446   4 t-inv F
  0.363636  0.000000  0.000000    0.00826446   5 t-inv F
  0.454545  0.000000  0.000000    0.00826446   6 t-inv F
  0.090909  0.090909  0.000000    0.00826446   7 t-inv F
  0.181818  0.090909  0.000000    0.00826446   8 t-inv F
  0.272727  0.090909  0.000000    0.00826446   9 t-inv F
  0.363636  0.090909  0.000000    0.00826446  10 t-inv F
  0.454545  0.090909  0.000000    0.00826446  11 t-inv F
  0.181818  0.181818  0.000000    0.00826446  12 t-inv F
  0.272727  0.181818  0.000000    0.00826446  13 t-inv F
  0.363636  0.181818  0.000000    0.00826446  14 t-inv F
  0.272727  0.272727  0.000000    0.00826446  15 t-inv F
  0.363636  0.272727  0.000000    0.00826446  16 t-inv F
 -0.090909  0.090909  0.000000    0.00826446   2 t-inv F
  0.000000 -0.090909  0.000000    0.00826446   2 t-inv F
 -0.090909  0.000000  0.000000    0.00826446   2 t-inv F
  0.090909 -0.090909  0.000000    0.00826446   2 t-inv F
  0.000000  0.090909  0.000000    0.00826446   2 t-inv F
 -0.181818  0.181818  0.000000    0.00826446   3 t-inv F
  0.000000 -0.181818  0.000000    0.00826446   3 t-inv F
 -0.181818  0.000000  0.000000    0.00826446   3 t-inv F
  0.181818 -0.181818  0.000000    0.00826446   3 t-inv F
  0.000000  0.181818  0.000000    0.00826446   3 t-inv F
 -0.272727  0.272727  0.000000    0.00826446   4 t-inv F
 -0.000000 -0.272727  0.000000    0.00826446   4 t-inv F
 -0.272727  0.000000  0.000000    0.00826446   4 t-inv F
  0.272727 -0.272727  0.000000    0.00826446   4 t-inv F
  0.000000  0.272727  0.000000    0.00826446   4 t-inv F
 -0.363636  0.363636  0.000000    0.00826446   5 t-inv F
  0.000000 -0.363636  0.000000    0.00826446   5 t-inv F
 -0.363636  0.000000  0.000000    0.00826446   5 t-inv F
  0.363636 -0.363636  0.000000    0.00826446   5 t-inv F
  0.000000  0.363636  0.000000    0.00826446   5 t-inv F
 -0.454545  0.454545  0.000000    0.00826446   6 t-inv F
  0.000000 -0.454545  0.000000    0.00826446   6 t-inv F
 -0.454545 -0.000000  0.000000    0.00826446   6 t-inv F
  0.454545 -0.454545  0.000000    0.00826446   6 t-inv F
 -0.000000  0.454545  0.000000    0.00826446   6 t-inv F
 -0.181818  0.090909  0.000000    0.00826446   7 t-inv F
  0.090909 -0.181818  0.000000    0.00826446   7 t-inv F
 -0.090909  0.181818  0.000000    0.00826446   7 t-inv F
  0.181818 -0.090909  0.000000    0.00826446   7 t-inv F
 -0.090909 -0.090909  0.000000    0.00826446   7 t-inv F
 -0.272727  0.181818  0.000000    0.00826446   8 t-inv F
  0.090909 -0.272727  0.000000    0.00826446   8 t-inv F
 -0.181818  0.272727  0.000000    0.00826446   8 t-inv F
  0.272727 -0.090909  0.000000    0.00826446   8 t-inv F
 -0.090909 -0.181818  0.000000    0.00826446   8 t-inv F
 -0.181818 -0.090909  0.000000    0.00826446   8 t-inv F
  0.272727 -0.181818  0.000000    0.00826446   8 t-inv F
 -0.090909  0.272727  0.000000    0.00826446   8 t-inv F
  0.181818 -0.272727  0.000000    0.00826446   8 t-inv F
 -0.272727  0.090909  0.000000    0.00826446   8 t-inv F
  0.090909  0.181818  0.000000    0.00826446   8 t-inv F
 -0.363636  0.272727  0.000000    0.00826446   9 t-inv F
  0.090909 -0.363636  0.000000    0.00826446   9 t-inv F
 -0.272727  0.363636  0.000000    0.00826446   9 t-inv F
[...]
  0.545455 -0.363636  0.000000    0.00826446  14 t-inv F
 -0.181818  0.545455  0.000000    0.00826446  14 t-inv F
  0.363636 -0.545455  0.000000    0.00826446  14 t-inv F
 -0.545455  0.181818  0.000000    0.00826446  14 t-inv F
  0.181818  0.363636  0.000000    0.00826446  14 t-inv F
 -0.545455  0.272727  0.000000    0.00826446  15 t-inv F
  0.272727 -0.545455  0.000000    0.00826446  15 t-inv F
 -0.272727  0.545455  0.000000    0.00826446  15 t-inv F
  0.545455 -0.272727  0.000000    0.00826446  15 t-inv F
 -0.272727 -0.272727  0.000000    0.00826446  15 t-inv F
 -0.636364  0.363636  0.000000    0.00826446  16 t-inv F
  0.272727 -0.636364  0.000000    0.00826446  16 t-inv F
 -0.363636  0.636364  0.000000    0.00826446  16 t-inv F
  0.636364 -0.272727  0.000000    0.00826446  16 t-inv F
 -0.272727 -0.363636  0.000000    0.00826446  16 t-inv F

 SYSTEM =  unknown system
 POSCAR =  pnictogen honeycomb monolayer

 Startparameter for this run:
   NWRITE =      1    write-flag & timer
[...]
   0.08840359  0.07655975  0.00000000       0.099
   0.11050448  0.08931971  0.00000000       0.050
   0.04420179  0.07655975  0.00000000       0.050
   0.06630269  0.08931971  0.00000000       0.099
   0.08840359  0.10207967  0.00000000       0.099
   0.06630269  0.11483963  0.00000000       0.050
   0.08840359  0.12759959  0.00000000       0.050

 k-points in reciprocal lattice and weights: kpoints
   0.00000000  0.00000000  0.00000000       0.008
   0.09090909  0.00000000  0.00000000       0.050
   0.18181818  0.00000000  0.00000000       0.050
   0.27272727 -0.00000000  0.00000000       0.050
   0.36363636  0.00000000  0.00000000       0.050
   0.45454545  0.00000000  0.00000000       0.050
   0.09090909  0.09090909  0.00000000       0.050
   0.18181818  0.09090909  0.00000000       0.099
   0.27272727  0.09090909  0.00000000       0.099
   0.36363636  0.09090909  0.00000000       0.099
   0.45454545  0.09090909  0.00000000       0.050
   0.18181818  0.18181818  0.00000000       0.050
   0.27272727  0.18181818  0.00000000       0.099
   0.36363636  0.18181818  0.00000000       0.099
   0.27272727  0.27272727  0.00000000       0.050
   0.36363636  0.27272727  0.00000000       0.050

 position of ions in fractional coordinates (direct lattice)
   0.66666669  0.33333334  0.29908359
   0.33333334  0.66666669  0.36758308

 position of ions in cartesian coordinates  (Angst):
   2.05668336  1.18742669  7.17800617
   0.00000000  2.37485339  8.82199383

 k-point   1 :   0.0000 0.0000 0.0000  plane waves:    2179
 k-point   2 :   0.0909 0.0000 0.0000  plane waves:    2162
 k-point   3 :   0.1818 0.0000 0.0000  plane waves:    2158
 k-point   4 :   0.2727-0.0000 0.0000  plane waves:    2160
 k-point   5 :   0.3636 0.0000 0.0000  plane waves:    2152
 k-point   6 :   0.4545 0.0000 0.0000  plane waves:    2148
 k-point   7 :   0.0909 0.0909 0.0000  plane waves:    2173
 k-point   8 :   0.1818 0.0909 0.0000  plane waves:    2158
 k-point   9 :   0.2727 0.0909 0.0000  plane waves:    2153
 k-point  10 :   0.3636 0.0909 0.0000  plane waves:    2151
 k-point  11 :   0.4545 0.0909 0.0000  plane waves:    2154
 k-point  12 :   0.1818 0.1818 0.0000  plane waves:    2153
 k-point  13 :   0.2727 0.1818 0.0000  plane waves:    2150
 k-point  14 :   0.3636 0.1818 0.0000  plane waves:    2134
 k-point  15 :   0.2727 0.2727 0.0000  plane waves:    2135
 k-point  16 :   0.3636 0.2727 0.0000  plane waves:    2128

 maximum and minimum number of plane-waves per node :      2179     2128

 maximum number of plane-waves:      2179
 maximum index in each direction:
   IXMAX=    4   IYMAX=    4   IZMAX=   27
   IXMIN=   -5   IYMIN=   -4   IZMIN=  -27

 serial   3D FFT for wavefunctions
 parallel 3D FFT for charge:
    minimum data exchange during FFTs selected (reduces bandwidth)

 Broyden mixing: mesh for mixing (old mesh)
   NGX =  9   NGY =  9   NGZ = 55
  (NGX  = 40   NGY  = 40   NGZ  =224)
  gives a total of   4455 points

 initial charge density was supplied:
 charge density of overlapping atoms calculated
 number of electron      10.0000000 magnetization
 keeping initial charge density in first step

 Maximum index for augmentation-charges         3347 (set IRDMAX)

 First call to EWALD:  gamma=   0.251
 Maximum number of real-space cells 5x 5x 1
 Maximum number of reciprocal cells 2x 2x 8

--------------------------------------- Ionic step        1  -------------------------------------------

--------------------------------------- Iteration      1(   1)  ---------------------------------------

 eigenvalue-minimisations  :   528
 total energy-change (2. order) : 0.2457769E+02  (-0.2002351E+03)
 number of electron      10.0000000 magnetization
 augmentation part       10.0000000 magnetization

 Free energy of the ion-electron system (eV)
  alpha Z        PSCENC =         1.98395647
  Ewald energy   TEWEN  =       616.86872450
  -Hartree energ DENC   =      -860.82644452
  -exchange      EXHF   =         0.00000000
  -V(xc)+E(xc)   XCENC  =       -92.70010106
  PAW double counting   =       327.35893868     -219.44694627
  entropy T*S    EENTRO =        -0.00000000
  eigenvalues    EBANDS =       -48.55260862
  atomic energy  EATOM  =       299.89217194
  Solvation  Ediel_sol  =         0.00000000
  free energy    TOTEN  =        24.57769113 eV

  energy without entropy =       24.57769113  energy(sigma->0) =       24.57769113

[...]

 eigenvalue-minimisations  :   736
 total energy-change (2. order) :-0.3198549E+02  (-0.3139906E+02)
 number of electron      10.0000000 magnetization
 augmentation part       10.0000000 magnetization

[...]

 eigenvalue-minimisations  :   560
 total energy-change (2. order) : 0.2273737E-12  ( 0.3497955E-12)
 number of electron      10.0000000 magnetization
 augmentation part       10.0000000 magnetization

[...]

 eigenvalue-minimisations  :   400
 total energy-change (2. order) : 0.2273737E-12  ( 0.4573678E-12)
 number of electron      10.0000000 magnetization
 augmentation part       -1.6409670 magnetization

 Broyden mixing:
  rms(total) = 0.15917E+00    rms(broyden)= 0.15857E+00
  rms(prec ) = 0.16981E+00
  weight for this iteration     100.00

[...]

 eigenvalues of (default mixing * dielectric matrix)
  average eigenvalue GAMMA=   8.9426
  8.9426

[...]

 eigenvalue-minimisations  :   720
 total energy-change (2. order) :-0.7668206E-05  (-0.1033329E-04)
 number of electron      10.0000000 magnetization
 augmentation part       -1.6256757 magnetization

[...]

--------------------------------------- Iteration      1(  19)  ---------------------------------------

 eigenvalue-minimisations  :   608
 total energy-change (2. order) : 0.7647810E-07  (-0.2928443E-06)
 number of electron      10.0000000 magnetization
 augmentation part       -1.6256757 magnetization

 Free energy of the ion-electron system (eV)
  alpha Z        PSCENC =         1.98395647
  Ewald energy   TEWEN  =       616.86872450
  -Hartree energ DENC   =      -866.34114952
  -exchange      EXHF   =         0.00000000
  -V(xc)+E(xc)   XCENC  =       -92.29524434
  PAW double counting   =       366.57269115     -258.80194939
  entropy T*S    EENTRO =        -0.00000000
  eigenvalues    EBANDS =       -75.99650937
  atomic energy  EATOM  =       299.89217194
  Solvation  Ediel_sol  =         0.00000000
  free energy    TOTEN  =        -8.11730857 eV

  energy without entropy =       -8.11730857  energy(sigma->0) =       -8.11730857

 average (electrostatic) potential at core
  the test charge radii are     1.1712
  (the norm of the test charge is              1.0000)
       1 -81.7538       2 -81.7539

 E-fermi :  -3.0875     XC(G=0):  -2.2529     alpha+bet : -1.7750

 Fermi energy:        -3.0875473428

 k-point     1 :       0.0000    0.0000    0.0000
  band No.  band energies     occupation
      1     -14.4123      2.00000
      2      -9.4392      2.00000
      3      -3.7381      2.00000
      4      -3.1314      2.00000
      5      -3.1314      2.00000
      6      -1.5650      0.00000
      7      -0.3411      0.00000
      8      -0.3411      0.00000
      9       1.1603      0.00000
     10       1.4004      0.00000
     11       1.9446      0.00000
     12       2.3402      0.00000
     13       3.2160      0.00000
     14       3.7971      0.00000
     15       3.9970      0.00000
     16       5.0374      0.00000

[...]

 k-point    16 :       0.3636    0.2727    0.0000
  band No.  band energies     occupation
      1     -11.8942      2.00000
      2     -11.3364      2.00000
      3      -6.5825      2.00000
      4      -5.1225      2.00000
      5      -4.7326      2.00000
      6      -1.5529      0.00000
      7       0.2827      0.00000
      8       0.4782      0.00000
      9       3.4335      0.00000
     10       3.6136      0.00000
     11       4.4316      0.00000
     12       4.4967      0.00000
     13       4.6667      0.00000
     14       5.2548      0.00000
     15       5.2608      0.00000
     16       5.3203      0.00000

 soft charge-density along one line, spin component           1
         0         1         2         3         4         5         6         7         8         9
 total charge-density along one line

------------------------ aborting loop because EDIFF is reached ----------------------------------------

 total charge

# of ion       s       p       d       f       tot
    1        1.581   1.846   0.079   0.012   3.518
    2        1.581   1.846   0.079   0.012   3.518
tot          3.162   3.692   0.158   0.025   7.036

  FREE ENERGIE OF THE ION-ELECTRON SYSTEM (eV)
  free  energy   TOTEN  =        -8.11730857 eV

  energy  without entropy=       -8.11730857  energy(sigma->0) =       -8.11730857

 Linear response reoptimize wavefunctions
 Linear response G [H, r] |phi>, progress :
  Direction:   1

----------------------------------------- Iteration    1(   1)  ---------------------------------------

  free energy    TOTEN  =       -44.34274894 eV

[...]

 Linear response G [H, r] |phi>, progress :
  Direction:   2

[...]

 Linear response G [H, r] |phi>, progress :
  Direction:   3

[...]

  free energy    TOTEN  =       -56.12391587 eV

[...]

 Linear response to external field (no local field effect), progress :
  Direction:   1
  LATTYP: Found a hexagonal cell.
 ALAT       =     4.1133666039
 C/A-ratio  =     5.8346367613

[...]

The dynamic configuration has the point symmetry C_1 .
 The point group associated with its full space group is C_2 .

[...]

 Free energy of the ion-electron system (eV)
  -Hartree energ DENC   =         0.00000000
  -V(xc)+E(xc)   XCENC  =         0.00000000
  PAW double counting   =         0.00000000        0.00000000
  entropy T*S    EENTRO =         0.00000000
  eigenvalues    EBANDS =        -2.61194571
  free energy    TOTEN  =        -2.61194571 eV

  energy without entropy =       -2.61194571

[...]

 change of polarisation eV/A/(eV/A) component  1 :     5.813    -2.447    -0.156
 dielectric tensor                  component  1 :     3.991    -1.259    -0.080

[...]

The dynamic configuration has the point symmetry C_1h.

[...]

 Linear response to external field (no local field effect), progress :
  Direction:   3
  LATTYP: Found a hexagonal cell.
 ALAT       =     4.1133666039
 C/A-ratio  =     5.8346367613

[...]

The dynamic configuration has the point symmetry C_3v.

[...]

 HEAD OF MICROSCOPIC STATIC DIELECTRIC TENSOR (INDEPENDENT PARTICLE, excluding Hartree and local field effects)
           4.372320     0.000000    -0.000000
           0.000000     4.372320     0.000000
           0.000000     0.000000     2.355716

 Linear response to external field, progress :
  Direction:   1
  LATTYP: Found a hexagonal cell.
 ALAT       =     4.1133666039
 C/A-ratio  =     5.8346367613

[...]

The dynamic configuration has the point symmetry C_1 .
 The point group associated with its full space group is C_2 .

[...]

 PIEZOELECTRIC TENSOR FIELD DIRECTION 1  (e Angst)
    -0.00002 -0.00000 -0.00000           ( -0.00002 -0.00000 -0.00000)
    -0.00000 -0.00003 -0.00001           ( -0.00000 -0.00003 -0.00001)
    -0.00000 -0.00001  0.00002           ( -0.00000 -0.00001  0.00002)

 PIEZOELECTRIC TENSOR FIELD DIRECTION 1  (C/m^2)
    -0.00000 -0.00000 -0.00000
    -0.00000 -0.00000 -0.00000
    -0.00000 -0.00000  0.00000

      POSITION         DIRECTION 1           BORN EFFECTIVE CHARGE    (rigid.aug.   ionic)
      2.05668      1.18743      7.17801     5.12564  0.00002  0.00005 (  0.81284  5.00000)
      0.00000      2.37485      8.82199     5.12564 -0.00002 -0.00005 (  0.81284  5.00000)
    total drift (improves with k-points):  10.25129  0.00000  0.00000

[...]

The dynamic configuration has the point symmetry C_1h.

[...]

 Linear response to external field, progress :
  Direction:   3
  LATTYP: Found a hexagonal cell.
 ALAT       =     4.1133666039
 C/A-ratio  =     5.8346367613

[...]

The dynamic configuration has the point symmetry C_3v.

[...]

----------------------------------------- Iteration    3(  12)  ---------------------------------------

 Broyden mixing:
  rms(total) = 0.89821E-05    rms(broyden)= 0.89708E-05
  rms(prec ) = 0.98956E-05
  weight for this iteration     100.00

 eigenvalues of (default mixing * dielectric matrix)
  average eigenvalue GAMMA=   4.1537
 10.1159  7.1716  6.7161  6.7161  5.4932  1.3088  0.9840  0.9840  1.0306  1.0164

 Free energy of the ion-electron system (eV)
  -Hartree energ DENC   =        -0.17783362
  -V(xc)+E(xc)   XCENC  =         0.01253146
  PAW double counting   =         0.02142215       -0.02132318
  entropy T*S    EENTRO =         0.00000000
  eigenvalues    EBANDS =        -0.06853622
  free energy    TOTEN  =        -0.23373941 eV

  energy without entropy =       -0.23373941

------------------------ aborting loop because EDIFF is reached ----------------------------------------

 change of polarisation eV/A/(eV/A) component  3 :    -0.039     0.000     0.453
 dielectric tensor                  component  3 :    -0.020     0.000     1.233

 PIEZOELECTRIC TENSOR FIELD DIRECTION 3  (e Angst)
    -0.00000 -0.00000  0.00000           ( -0.00000 -0.00000  0.00000)
    -0.00000 -0.00000  0.00000           ( -0.00000 -0.00000  0.00000)
     0.00000  0.00000  0.00000           (  0.00000  0.00000  0.00000)

 PIEZOELECTRIC TENSOR FIELD DIRECTION 3  (C/m^2)
    -0.00000 -0.00000  0.00000
    -0.00000 -0.00000  0.00000
     0.00000  0.00000  0.00000

      POSITION         DIRECTION 3           BORN EFFECTIVE CHARGE    (rigid.aug.   ionic)
      2.05668      1.18743      7.17801    -0.00000  0.00000  5.11967 (  0.81284  5.00000)
      0.00000      2.37485      8.82199    -0.00000  0.00000  5.11968 (  0.81284  5.00000)
    total drift (improves with k-points):  -0.00000  0.00000 10.23936

[...]

 MACROSCOPIC STATIC DIELECTRIC TENSOR (including local field effects in DFT)
           4.127542     0.000000     0.000000
           0.000000     4.127542     0.000000
           0.000000    -0.000000     1.233196

  LATTYP: Found a hexagonal cell.
 ALAT       =     4.1133666039
 C/A-ratio  =     5.8346367613

  Lattice vectors:

 A1 = (   4.1133666039,   0.0000000000,   0.0000000000)
 A2 = (  -2.0566833019,   3.5622799740,   0.0000000000)
 A3 = (   0.0000000000,   0.0000000000,  24.0000000000)

Analysis of symmetry for initial positions (statically):
 Subroutine PRICEL returns:
 Original cell was already a primitive cell.

[...]

The static configuration has the point symmetry C_3v.
 The point group associated with its full space group is D_3d.

Analysis of symmetry for dynamics (positions and initial velocities):
 Subroutine PRICEL returns:
 Original cell was already a primitive cell.

 Routine SETGRP: Setting up the symmetry group for a
 hexagonal supercell.

 Subroutine GETGRP returns: Found 12 space group operations
 (whereof  6 operations were pure point group operations)
 out of a pool of 24 trial point group operations.

The dynamic configuration has the point symmetry C_3v.
 The point group associated with its full space group is D_3d.

 Subroutine INISYM returns: Found 12 space group operations
 (whereof  6 operations are pure point group operations),
 and found     1 'primitive' translations

 MACROSCOPIC STATIC DIELECTRIC TENSOR (including local field effects in DFT)
           4.127542     0.000000     0.000000
           0.000000     4.127542     0.000000
           0.000000    -0.000000     1.233196

 PIEZOELECTRIC TENSOR (including local field effects)  for field in x, y, z        (e  Angst)
          XX          YY          ZZ          XY          YZ          ZX
  x     0.00000     0.00000    -0.00000     0.00000     0.00000    -0.00000
  y     0.00000     0.00000     0.00000     0.00000     0.00000     0.00000
  z     0.00000     0.00000    -0.00000     0.00000     0.00000     0.00000

 PIEZOELECTRIC TENSOR (including local field effects)  for field in x, y, z        (C/m^2)
          XX          YY          ZZ          XY          YZ          ZX
  x     0.00000     0.00000    -0.00000     0.00000     0.00000    -0.00000
  y     0.00000     0.00000     0.00000     0.00000     0.00000     0.00000
  z     0.00000     0.00000    -0.00000     0.00000     0.00000     0.00000

 BORN EFFECTIVE CHARGES (including local field effects) (in |e|, cummulative output)
 ion    1
    1     0.00000     0.00000     0.00000
    2    -0.00000     0.00000     0.00000
    3     0.00000     0.00000     0.00000
 ion    2
    1     0.00000     0.00000     0.00000
    2     0.00000     0.00000     0.00000
    3     0.00000     0.00000    -0.00000

 total charge

# of ion       s       p       d       f       tot
    1        1.581   1.846   0.079   0.012   3.518
    2        1.581   1.846   0.079   0.012   3.518
tot          3.162   3.692   0.158   0.025   7.036