 vasp.6.4.2 20Jul23 (build Nov 14 2023 12:59:38) complex

 executed on             LinuxIFC date 2023.12.16  19:35:32

 INCAR:
   ENCUT = 234.789750
   ALGO = Normal
   NELM = 200
   NELMIN = 6
   NELMDL = -12
   EDIFF = 1.0E-7
   AMIX = 0.1
   BMIX = 0.0001
   PREC = Accurate
   IVDW = 0
   ISPIN = 1
   ADDGRID = .TRUE.
   LASPH = .TRUE.
   EDIFFG = -0.010
   IBRION = 8
   STRESSTYPE = 2
   ISMEAR = 0
   SIGMA = 0.01
   LORBIT = 10
   NEDOS = 6001
   NWRITE = 1
   LWAVE = .FALSE.
   LCHARG = .FALSE.
   LPLANE = .TRUE.

 POTCAR:    PAW_PBE As_GW 20Mar2012
|           W    W    AA    RRRRR   N    N  II  N    N   GGGG   !!!           |
|           W    W   A  A   R    R  NN   N  II  NN   N  G    G  !!!           |
|           W    W  A    A  R    R  N N  N  II  N N  N  G       !!!           |
|           W WW W  AAAAAA  RRRRR   N  N N  II  N  N N  G  GGG   !            |
|           WW  WW  A    A  R   R   N   NN  II  N   NN  G    G                |
|           W    W  A    A  R    R  N    N  II  N    N   GGGG   !!!           |
|     For optimal performance we recommend to set                             |
|       NCORE = 2 up to number-of-cores-per-socket                            |
|     This setting can greatly improve the performance of VASP for DFT.       |
|     The default, NCORE=1 might be grossly inefficient on modern             |
|     multi-core architectures or massively parallel machines. Do your        |
|     Unfortunately you need to use the default for GW and RPA                |
|     calculations (for HF NCORE is supported but not extensively tested      |
|     yet).                                                                   |

 POTCAR:    PAW_PBE As_GW 20Mar2012

  PAW_PBE As_GW 20Mar2012               :

 POSCAR: generated by phonopy
  positions in direct lattice
 exchange correlation table for  LEXCH =        8
   RHO(1)=    0.500       N(1)  =     2000
   RHO(2)=  100.500       N(2)  =     4000

 ion  position               nearest neighbor table
   1  0.222  0.111  0.456-  10 2.51  11 2.51  16 2.51
   2  0.556  0.111  0.456-  11 2.51  12 2.51  17 2.51
   3  0.889  0.111  0.456-  12 2.51  18 2.51  10 2.51
   4  0.222  0.444  0.456-  10 2.51  13 2.51  14 2.51
   5  0.556  0.444  0.456-  11 2.51  15 2.51  14 2.51
   6  0.889  0.444  0.456-  12 2.51  15 2.51  13 2.51
   7  0.222  0.778  0.456-  16 2.51  13 2.51  17 2.51
   8  0.556  0.778  0.456-  14 2.51  17 2.51  18 2.51
   9  0.889  0.778  0.456-  18 2.51  15 2.51  16 2.51
  10  0.111  0.222  0.544-   1 2.51   4 2.51   3 2.51
  11  0.444  0.222  0.544-   5 2.51   2 2.51   1 2.51
  12  0.778  0.222  0.544-   3 2.51   6 2.51   2 2.51
  13  0.111  0.556  0.544-   4 2.51   7 2.51   6 2.51
  14  0.444  0.556  0.544-   8 2.51   4 2.51   5 2.51
  15  0.778  0.556  0.544-   6 2.51   9 2.51   5 2.51
  16  0.111  0.889  0.544-   7 2.51   1 2.51   9 2.51
  17  0.444  0.889  0.544-   7 2.51   8 2.51   2 2.51
  18  0.778  0.889  0.544-   9 2.51   8 2.51   3 2.51

  LATTYP: Found a hexagonal cell.
 ALAT       =    10.8206776169
 C/A-ratio  =     1.4786504659

  Lattice vectors:

 A1 = (  10.8206776169,   0.0000000000,   0.0000000000)
 A2 = (  -5.4103388084,   9.3709817024,   0.0000000000)
 A3 = (   0.0000000000,   0.0000000000,  16.0000000000)

Analysis of symmetry for initial positions (statically):
 Subroutine PRICEL returns following result:

[...]

   9 primitive cells build up your supercell.

 Routine SETGRP: Setting up the symmetry group for a
 hexagonal supercell.

 Subroutine GETGRP returns: Found 12 space group operations
 (whereof 12 operations were pure point group operations)
 out of a pool of 24 trial point group operations.

The static configuration has the point symmetry D_3d.

Analysis of symmetry for dynamics (positions and initial velocities):
 Subroutine PRICEL returns following result:

[...]

The dynamic configuration has the point symmetry D_3d.

 Subroutine INISYM returns: Found 12 space group operations
 (whereof 12 operations are pure point group operations),
 and found     9 'primitive' translations

                                     Primitive cell

  volume of cell :     180.2673

  direct lattice vectors                    reciprocal lattice vectors
     3.606892539  0.000000000  0.000000000     0.277246962  0.160068608  0.000000000
    -1.803446269  3.123660567  0.000000000     0.000000000  0.320137217  0.000000000
     0.000000000  0.000000000 16.000000000     0.000000000  0.000000000  0.062500000

  length of vectors
     3.606892539  3.606892539 16.000000000     0.320137217  0.320137217  0.062500000

  position of ions in fractional coordinates (direct lattice)
     0.666666667  0.333333333  0.456343136
     0.333333333  0.666666667  0.543656864

  ion indices of the primitive-cell ions
   primitive index   ion index
                 1           1
                 2          10

 KPOINTS: Fully automatic mesh

Automatic generation of k-mesh.
 Grid dimensions derived from RKLEN:
 generate k-points for:    4    4    3

 Generating k-lattice:

  Cartesian coordinates                     Fractional coordinates (reciprocal lattice)
     0.023103914  0.013339051  0.000000000     0.250000000  0.000000000  0.000000000
     0.000000000  0.026678101  0.000000000     0.000000000  0.250000000  0.000000000
     0.000000000  0.000000000  0.020833333     0.000000000  0.000000000  0.333333333

  Length of vectors
     0.026678101  0.026678101  0.020833333

  Shift w.r.t. Gamma in fractional coordinates (k-lattice)
     0.000000000  0.000000000  0.000000000

 Subroutine IBZKPT returns following result:

 Found      9 irreducible k-points:

 Following reciprocal coordinates:
            Coordinates               Weight
  0.000000  0.000000  0.000000      1.000000
  0.250000 -0.000000  0.000000      6.000000
  0.500000 -0.000000  0.000000      3.000000
  0.250000  0.250000  0.000000      6.000000
  0.000000  0.000000  0.333333      2.000000
  0.250000 -0.000000  0.333333      6.000000
  0.000000  0.250000  0.333333      6.000000
  0.500000 -0.000000  0.333333      6.000000
  0.250000  0.250000  0.333333     12.000000

 Following cartesian coordinates:
            Coordinates               Weight
  0.000000  0.000000  0.000000      1.000000
  0.023104  0.013339  0.000000      6.000000
  0.046208  0.026678  0.000000      3.000000
  0.023104  0.040017  0.000000      6.000000
  0.000000  0.000000  0.020833      2.000000
  0.023104  0.013339  0.020833      6.000000
  0.000000  0.026678  0.020833      6.000000
  0.046208  0.026678  0.020833      6.000000
  0.023104  0.040017  0.020833     12.000000

 Subroutine IBZKPT_HF returns following result:

 Found     48 k-points in 1st BZ
 the following     48 k-points will be used (e.g. in the exchange kernel)
 Following reciprocal coordinates:   # in IRBZ
  0.000000  0.000000  0.000000    0.02083333   1 t-inv F
  0.250000 -0.000000  0.000000    0.02083333   2 t-inv F
  0.500000 -0.000000  0.000000    0.02083333   3 t-inv F
  0.250000  0.250000  0.000000    0.02083333   4 t-inv F
  0.000000  0.000000  0.333333    0.02083333   5 t-inv F
  0.250000 -0.000000  0.333333    0.02083333   6 t-inv F
  0.000000  0.250000  0.333333    0.02083333   7 t-inv F
  0.500000 -0.000000  0.333333    0.02083333   8 t-inv F
  0.250000  0.250000  0.333333    0.02083333   9 t-inv F
 -0.250000  0.000000  0.000000    0.02083333   2 t-inv F
 -0.250000  0.250000  0.000000    0.02083333   2 t-inv F
  0.250000 -0.250000  0.000000    0.02083333   2 t-inv F
 -0.000000 -0.250000  0.000000    0.02083333   2 t-inv F
  0.000000  0.250000  0.000000    0.02083333   2 t-inv F
 -0.500000  0.500000  0.000000    0.02083333   3 t-inv F
 -0.000000 -0.500000  0.000000    0.02083333   3 t-inv F
 -0.250000 -0.250000  0.000000    0.02083333   4 t-inv F
 -0.500000  0.250000  0.000000    0.02083333   4 t-inv F
  0.500000 -0.250000  0.000000    0.02083333   4 t-inv F
  0.250000 -0.500000  0.000000    0.02083333   4 t-inv F
 -0.250000  0.500000  0.000000    0.02083333   4 t-inv F
  0.000000  0.000000 -0.333333    0.02083333   5 t-inv F
 -0.250000  0.000000 -0.333333    0.02083333   6 t-inv F
 -0.250000  0.250000  0.333333    0.02083333   6 t-inv F
  0.250000 -0.250000 -0.333333    0.02083333   6 t-inv F
 -0.000000 -0.250000  0.333333    0.02083333   6 t-inv F
  0.000000  0.250000 -0.333333    0.02083333   6 t-inv F
  0.000000 -0.250000 -0.333333    0.02083333   7 t-inv F
 -0.250000  0.000000  0.333333    0.02083333   7 t-inv F
  0.250000  0.000000 -0.333333    0.02083333   7 t-inv F
  0.250000 -0.250000  0.333333    0.02083333   7 t-inv F
 -0.250000  0.250000 -0.333333    0.02083333   7 t-inv F
 -0.500000  0.000000 -0.333333    0.02083333   8 t-inv F
 -0.500000  0.500000  0.333333    0.02083333   8 t-inv F
  0.500000 -0.500000 -0.333333    0.02083333   8 t-inv F
 -0.000000 -0.500000  0.333333    0.02083333   8 t-inv F
  0.000000  0.500000 -0.333333    0.02083333   8 t-inv F
 -0.250000 -0.250000 -0.333333    0.02083333   9 t-inv F
 -0.500000  0.250000  0.333333    0.02083333   9 t-inv F
  0.500000 -0.250000 -0.333333    0.02083333   9 t-inv F
  0.250000 -0.500000  0.333333    0.02083333   9 t-inv F
 -0.250000  0.500000 -0.333333    0.02083333   9 t-inv F
  0.250000 -0.500000 -0.333333    0.02083333   9 t-inv F
 -0.250000  0.500000  0.333333    0.02083333   9 t-inv F
 -0.500000  0.250000 -0.333333    0.02083333   9 t-inv F
  0.500000 -0.250000  0.333333    0.02083333   9 t-inv F
  0.250000  0.250000 -0.333333    0.02083333   9 t-inv F
 -0.250000 -0.250000  0.333333    0.02083333   9 t-inv F

 SYSTEM =  unknown system
 POSCAR =  generated by phonopy

 Startparameter for this run:
   NWRITE =      1    write-flag & timer
   PREC   = accura    normal or accurate (medium, high low for compatibility)
   ISTART =      0    job   : 0-new  1-cont  2-samecut
   ICHARG =      2    charge: 1-file 2-atom 10-const
   ISPIN  =      1    spin polarized calculation?
   LNONCOLLINEAR =      F non collinear calculations
   LSORBIT =      F    spin-orbit coupling
   INIWAV =      1    electr: 0-lowe 1-rand  2-diag
   LASPH  =      T    aspherical Exc in radial PAW
 Electronic Relaxation 1
   ENCUT  =  234.8 eV  17.26 Ry    4.15 a.u.  13.52 13.52 19.99*2*pi/ulx,y,z
   ENINI  =  234.8     initial cutoff
   ENAUG  =  462.8 eV  augmentation charge cutoff
   NELM   =    200;   NELMIN=  6; NELMDL=-12     # of ELM steps
   EDIFF  = 0.1E-06   stopping-criterion for ELM
   LREAL  =      F    real-space projection
   NLSPLINE    = F    spline interpolate recip. space projectors
   LCOMPAT=      F    compatible to vasp.4.4
   GGA_COMPAT  = T    GGA compatible to vasp.4.4-vasp.4.6
   LMAXPAW     = -100 max onsite density
   LMAXMIX     =    2 max onsite mixed and CHGCAR
   VOSKOWN=      0    Vosko Wilk Nusair interpolation
   ROPT   =    0.00000
 Ionic relaxation
   EDIFFG = -.1E-01   stopping-criterion for IOM
   NSW    =      1    number of steps for IOM
   NBLOCK =      1;   KBLOCK =      1    inner block; outer block
   IBRION =      8    ionic relax: 0-MD 1-quasi-New 2-CG
   NFREE  =      0    steps in history (QN), initial steepest desc. (CG)
   ISIF   =      2    stress and relaxation
[...]
 14Y    -0.000000   -0.015177    0.032528   -0.059662    0.209415   -0.067971    0.059662    0.209415   -0.067971    1.323434    1.661047    1.663825   -1.323434    1.661047    1.663825    0.000000    0.106079    0.135941   -0.019649   -0.049211   -0.016264    0.000000    3.953302   -3.327649    0.019649   -0.049211   -0.016264    0.289290    0.217691    0.221794   -0.289290    0.217691    0.221794    0.000000    0.060158   -0.000000   -0.009671   -0.263707   -0.320215   -0.000000   -8.152651   -0.000000    0.009671   -0.263707   -0.320215    0.000000    0.059520    0.000000   -0.267423    0.219149    0.098421    0.267423    0.219149    0.098421
 14Z     0.000000    0.034641    0.100191   -0.120820   -0.069755    0.289706    0.120820   -0.069755    0.289706    2.881024    1.663360    3.876062   -2.881024    1.663360    3.876062    0.000000    0.139510    0.289706    0.030000   -0.017321    0.100191   -0.000000   -3.326720    3.876062   -0.030000   -0.017321    0.100191   -0.312280    0.098406   -0.503989    0.312280    0.098406   -0.503989    0.000000   -0.000000   -0.052990   -0.070918   -0.319646   -0.503989    0.000000    0.000000   -9.663775    0.070918   -0.319646   -0.503989    0.000000    0.000000   -0.057178    0.241362    0.221240   -0.503989   -0.241362    0.221240   -0.503989
 15X     0.140524    0.059662    0.117729   -0.060556   -0.000000    0.000000    0.140524   -0.059662   -0.117729    0.243861    0.000000    0.000000    3.189217    1.323434    2.881829    3.189217   -1.323434   -2.881829   -0.026522    0.019649   -0.028170   -0.026522   -0.019649    0.028170    0.896962    0.000000   -0.000000    0.060158    0.000000   -0.000000   -0.102269    0.268265   -0.241700   -0.102269   -0.268265    0.241700    0.379130   -0.011354   -0.071229    0.379130    0.011354    0.071229   -8.152651   -0.000000   -0.000000   -0.103727    0.288448   -0.312929    0.059520    0.000000    0.000000   -0.103727   -0.288448    0.312929
 15Y     0.059662    0.209415   -0.067971   -0.000000   -0.015177    0.032528   -0.059662    0.209415   -0.067971    0.000000    0.106079    0.135941    1.323434    1.661047    1.663825   -1.323434    1.661047    1.663825    0.019649   -0.049211   -0.016264   -0.019649   -0.049211   -0.016264    0.000000    3.953302   -3.327649    0.000000    0.060158   -0.000000    0.289290    0.217691    0.221794   -0.289290    0.217691    0.221794    0.009671   -0.263707   -0.320215   -0.009671   -0.263707   -0.320215   -0.000000   -8.152651   -0.000000    0.267423    0.219149    0.098421    0.000000    0.059520    0.000000   -0.267423    0.219149    0.098421
 15Z     0.120820   -0.069755    0.289706    0.000000    0.034641    0.100191   -0.120820   -0.069755    0.289706    0.000000    0.139510    0.289706    2.881024    1.663360    3.876062   -2.881024    1.663360    3.876062   -0.030000   -0.017321    0.100191    0.030000   -0.017321    0.100191   -0.000000   -3.326720    3.876062    0.000000   -0.000000   -0.052990   -0.312280    0.098406   -0.503989    0.312280    0.098406   -0.503989    0.070918   -0.319646   -0.503989   -0.070918   -0.319646   -0.503989    0.000000    0.000000   -9.663775   -0.241362    0.221240   -0.503989    0.000000    0.000000   -0.057178    0.241362    0.221240   -0.503989
 16X     0.896962    0.000000   -0.000000   -0.026522    0.019649   -0.028170   -0.026522   -0.019649    0.028170    0.140524   -0.059662   -0.117729    0.140524    0.059662    0.117729   -0.060556   -0.000000    0.000000    3.189217   -1.323434   -2.881829    0.243861    0.000000    0.000000    3.189217    1.323434    2.881829   -0.103727   -0.288448    0.312929   -0.103727    0.288448   -0.312929    0.059520    0.000000    0.000000   -0.102269   -0.268265    0.241700    0.060158    0.000000   -0.000000   -0.102269    0.268265   -0.241700   -8.152651   -0.000000   -0.000000    0.379130   -0.011354   -0.071229    0.379130    0.011354    0.071229
 16Y     0.000000    3.953302   -3.327649    0.019649   -0.049211   -0.016264   -0.019649   -0.049211   -0.016264   -0.059662    0.209415   -0.067971    0.059662    0.209415   -0.067971   -0.000000   -0.015177    0.032528   -1.323434    1.661047    1.663825    0.000000    0.106079    0.135941    1.323434    1.661047    1.663825   -0.267423    0.219149    0.098421    0.267423    0.219149    0.098421    0.000000    0.059520    0.000000   -0.289290    0.217691    0.221794    0.000000    0.060158   -0.000000    0.289290    0.217691    0.221794   -0.000000   -8.152651   -0.000000    0.009671   -0.263707   -0.320215   -0.009671   -0.263707   -0.320215
 16Z    -0.000000   -3.326720    3.876062   -0.030000   -0.017321    0.100191    0.030000   -0.017321    0.100191   -0.120820   -0.069755    0.289706    0.120820   -0.069755    0.289706    0.000000    0.034641    0.100191   -2.881024    1.663360    3.876062    0.000000    0.139510    0.289706    2.881024    1.663360    3.876062    0.241362    0.221240   -0.503989   -0.241362    0.221240   -0.503989    0.000000    0.000000   -0.057178    0.312280    0.098406   -0.503989    0.000000   -0.000000   -0.052990   -0.312280    0.098406   -0.503989    0.000000    0.000000   -9.663775    0.070918   -0.319646   -0.503989   -0.070918   -0.319646   -0.503989
 17X    -0.026522   -0.019649    0.028170    0.896962    0.000000   -0.000000   -0.026522    0.019649   -0.028170   -0.060556   -0.000000    0.000000    0.140524   -0.059662   -0.117729    0.140524    0.059662    0.117729    3.189217    1.323434    2.881829    3.189217   -1.323434   -2.881829    0.243861    0.000000    0.000000    0.059520    0.000000    0.000000   -0.103727   -0.288448    0.312929   -0.103727    0.288448   -0.312929   -0.102269    0.268265   -0.241700   -0.102269   -0.268265    0.241700    0.060158    0.000000   -0.000000    0.379130    0.011354    0.071229   -8.152651   -0.000000   -0.000000    0.379130   -0.011354   -0.071229
 17Y    -0.019649   -0.049211   -0.016264    0.000000    3.953302   -3.327649    0.019649   -0.049211   -0.016264   -0.000000   -0.015177    0.032528   -0.059662    0.209415   -0.067971    0.059662    0.209415   -0.067971    1.323434    1.661047    1.663825   -1.323434    1.661047    1.663825    0.000000    0.106079    0.135941    0.000000    0.059520    0.000000   -0.267423    0.219149    0.098421    0.267423    0.219149    0.098421    0.289290    0.217691    0.221794   -0.289290    0.217691    0.221794    0.000000    0.060158   -0.000000   -0.009671   -0.263707   -0.320215   -0.000000   -8.152651   -0.000000    0.009671   -0.263707   -0.320215
 17Z     0.030000   -0.017321    0.100191   -0.000000   -3.326720    3.876062   -0.030000   -0.017321    0.100191    0.000000    0.034641    0.100191   -0.120820   -0.069755    0.289706    0.120820   -0.069755    0.289706    2.881024    1.663360    3.876062   -2.881024    1.663360    3.876062    0.000000    0.139510    0.289706    0.000000    0.000000   -0.057178    0.241362    0.221240   -0.503989   -0.241362    0.221240   -0.503989   -0.312280    0.098406   -0.503989    0.312280    0.098406   -0.503989    0.000000   -0.000000   -0.052990   -0.070918   -0.319646   -0.503989    0.000000    0.000000   -9.663775    0.070918   -0.319646   -0.503989
 18X    -0.026522    0.019649   -0.028170   -0.026522   -0.019649    0.028170    0.896962    0.000000   -0.000000    0.140524    0.059662    0.117729   -0.060556   -0.000000    0.000000    0.140524   -0.059662   -0.117729    0.243861    0.000000    0.000000    3.189217    1.323434    2.881829    3.189217   -1.323434   -2.881829   -0.103727    0.288448   -0.312929    0.059520    0.000000    0.000000   -0.103727   -0.288448    0.312929    0.060158    0.000000   -0.000000   -0.102269    0.268265   -0.241700   -0.102269   -0.268265    0.241700    0.379130   -0.011354   -0.071229    0.379130    0.011354    0.071229   -8.152651   -0.000000   -0.000000
 18Y     0.019649   -0.049211   -0.016264   -0.019649   -0.049211   -0.016264    0.000000    3.953302   -3.327649    0.059662    0.209415   -0.067971   -0.000000   -0.015177    0.032528   -0.059662    0.209415   -0.067971    0.000000    0.106079    0.135941    1.323434    1.661047    1.663825   -1.323434    1.661047    1.663825    0.267423    0.219149    0.098421    0.000000    0.059520    0.000000   -0.267423    0.219149    0.098421    0.000000    0.060158   -0.000000    0.289290    0.217691    0.221794   -0.289290    0.217691    0.221794    0.009671   -0.263707   -0.320215   -0.009671   -0.263707   -0.320215   -0.000000   -8.152651   -0.000000
 18Z    -0.030000   -0.017321    0.100191    0.030000   -0.017321    0.100191   -0.000000   -3.326720    3.876062    0.120820   -0.069755    0.289706    0.000000    0.034641    0.100191   -0.120820   -0.069755    0.289706    0.000000    0.139510    0.289706    2.881024    1.663360    3.876062   -2.881024    1.663360    3.876062   -0.241362    0.221240   -0.503989    0.000000    0.000000   -0.057178    0.241362    0.221240   -0.503989    0.000000   -0.000000   -0.052990   -0.312280    0.098406   -0.503989    0.312280    0.098406   -0.503989    0.070918   -0.319646   -0.503989   -0.070918   -0.319646   -0.503989    0.000000    0.000000   -9.663775

 Eigenvectors and eigenvalues of the dynamical matrix

   1 f  =    9.137555 THz    57.412952 2PiTHz  304.796031 cm-1    37.789875 meV
             X         Y         Z           dx          dy          dz
      1.803446  1.041220  7.301490    -0.000000    0.000000    0.235702
      5.410339  1.041220  7.301490    -0.000000   -0.000000    0.235702
      9.017231  1.041220  7.301490    -0.000000   -0.000000    0.235702
      0.000000  4.164881  7.301490    -0.000000   -0.000000    0.235702
      3.606893  4.164881  7.301490    -0.000000   -0.000000    0.235702
      7.213785  4.164881  7.301490    -0.000000   -0.000000    0.235702
     -1.803446  7.288541  7.301490    -0.000000   -0.000000    0.235702
      1.803446  7.288541  7.301490     0.000000    0.000000    0.235702
      5.410339  7.288541  7.301490    -0.000000   -0.000000    0.235702
      0.000000  2.082440  8.698510     0.000000   -0.000000   -0.235702
      3.606893  2.082440  8.698510     0.000000    0.000000   -0.235702
      7.213785  2.082440  8.698510     0.000000    0.000000   -0.235702
     -1.803446  5.206101  8.698510     0.000000    0.000000   -0.235702
      1.803446  5.206101  8.698510     0.000000    0.000000   -0.235702
      5.410339  5.206101  8.698510     0.000000    0.000000   -0.235702
     -3.606893  8.329762  8.698510     0.000000    0.000000   -0.235702
      0.000000  8.329762  8.698510     0.000000   -0.000000   -0.235702
      3.606893  8.329762  8.698510    -0.000000    0.000000   -0.235702

[...]

  51 f  =    1.282391 THz     8.057501 2PiTHz   42.775964 cm-1     5.303541 meV
             X         Y         Z           dx          dy          dz
      1.803446  1.041220  7.301490    -0.074885    0.024351    0.002572
      5.410339  1.041220  7.301490    -0.029322   -0.067089   -0.293232
      9.017231  1.041220  7.301490     0.104206    0.035509   -0.127066
      0.000000  4.164881  7.301490     0.004998    0.042352    0.466436
      3.606893  4.164881  7.301490    -0.131293    0.055905   -0.048535
      7.213785  4.164881  7.301490     0.126295    0.086877   -0.107203
     -1.803446  7.288541  7.301490     0.027086   -0.091414    0.175601
      1.803446  7.288541  7.301490    -0.051410   -0.111228    0.104631
      5.410339  7.288541  7.301490     0.024324    0.024737   -0.173204
      0.000000  2.082440  8.698510    -0.030897   -0.139967    0.186519
      3.606893  2.082440  8.698510     0.085136   -0.025110   -0.171809
      7.213785  2.082440  8.698510    -0.054238   -0.030550   -0.286780
     -1.803446  5.206101  8.698510    -0.137326   -0.002530    0.311936
      1.803446  5.206101  8.698510     0.126588    0.026948    0.317186
      5.410339  5.206101  8.698510     0.010737    0.007927   -0.200299
     -3.606893  8.329762  8.698510    -0.072350    0.003602   -0.030406
      0.000000  8.329762  8.698510     0.020160    0.132040    0.013780
      3.606893  8.329762  8.698510     0.052190    0.027640   -0.140127

  52 f/i=    0.000000 THz     0.000001 2PiTHz    0.000006 cm-1     0.000001 meV
             X         Y         Z           dx          dy          dz
      1.803446  1.041220  7.301490     0.091299   -0.206009   -0.069141
      5.410339  1.041220  7.301490     0.091299   -0.206009   -0.069141
      9.017231  1.041220  7.301490     0.091299   -0.206009   -0.069141
      0.000000  4.164881  7.301490     0.091299   -0.206009   -0.069141
      3.606893  4.164881  7.301490     0.091299   -0.206009   -0.069141
      7.213785  4.164881  7.301490     0.091299   -0.206009   -0.069141
     -1.803446  7.288541  7.301490     0.091299   -0.206009   -0.069141
      1.803446  7.288541  7.301490     0.091299   -0.206009   -0.069141
      5.410339  7.288541  7.301490     0.091299   -0.206009   -0.069141
      0.000000  2.082440  8.698510     0.091299   -0.206009   -0.069141
      3.606893  2.082440  8.698510     0.091299   -0.206009   -0.069141
      7.213785  2.082440  8.698510     0.091299   -0.206009   -0.069141
     -1.803446  5.206101  8.698510     0.091299   -0.206009   -0.069141
      1.803446  5.206101  8.698510     0.091299   -0.206009   -0.069141
      5.410339  5.206101  8.698510     0.091299   -0.206009   -0.069141
     -3.606893  8.329762  8.698510     0.091299   -0.206009   -0.069141
      0.000000  8.329762  8.698510     0.091299   -0.206009   -0.069141
      3.606893  8.329762  8.698510     0.091299   -0.206009   -0.069141

[...]

  54 f/i=    0.000000 THz     0.000002 2PiTHz    0.000010 cm-1     0.000001 meV
             X         Y         Z           dx          dy          dz
      1.803446  1.041220  7.301490     0.207802    0.104702   -0.037566
      5.410339  1.041220  7.301490     0.207802    0.104702   -0.037566
      9.017231  1.041220  7.301490     0.207802    0.104702   -0.037566
      0.000000  4.164881  7.301490     0.207802    0.104702   -0.037566
      3.606893  4.164881  7.301490     0.207802    0.104702   -0.037566
      7.213785  4.164881  7.301490     0.207802    0.104702   -0.037566
     -1.803446  7.288541  7.301490     0.207802    0.104702   -0.037566
      1.803446  7.288541  7.301490     0.207802    0.104702   -0.037566
      5.410339  7.288541  7.301490     0.207802    0.104702   -0.037566
      0.000000  2.082440  8.698510     0.207802    0.104702   -0.037566
      3.606893  2.082440  8.698510     0.207802    0.104702   -0.037566
      7.213785  2.082440  8.698510     0.207802    0.104702   -0.037566
     -1.803446  5.206101  8.698510     0.207802    0.104702   -0.037566
      1.803446  5.206101  8.698510     0.207802    0.104702   -0.037566
      5.410339  5.206101  8.698510     0.207802    0.104702   -0.037566
     -3.606893  8.329762  8.698510     0.207802    0.104702   -0.037566
      0.000000  8.329762  8.698510     0.207802    0.104702   -0.037566
      3.606893  8.329762  8.698510     0.207802    0.104702   -0.037566

 ELASTIC MODULI CONTR FROM IONIC RELAXATION (kBar)
 Direction    XX          YY          ZZ          XY          YZ          ZX
 XX         -39.3310    -15.4393    -77.7776     -0.0000    -39.6177     -0.0000
 YY         -15.4393    -39.3310    -77.7776     -0.0000     39.6177      0.0000
 ZZ         -77.7776    -77.7776   -220.8987      0.0000     -0.0000     -0.0000
 XY          -0.0000     -0.0000     -0.0000    -11.9459      0.0000    -39.9148
 YZ         -39.6177     39.6177      0.0000      0.0000   -131.3892      0.0000
 ZX           0.0000      0.0000     -0.0000    -39.9148      0.0000   -133.3676

 total charge

# of ion       s       p       d       tot
    1        1.291   1.352   0.041   2.684
    2        1.291   1.352   0.041   2.684
    3        1.291   1.352   0.041   2.684
    4        1.291   1.352   0.041   2.684
    5        1.291   1.352   0.041   2.684
    6        1.291   1.352   0.041   2.684
    7        1.291   1.352   0.041   2.684
    8        1.291   1.352   0.041   2.684
    9        1.291   1.352   0.041   2.684
   10        1.291   1.352   0.041   2.684
   11        1.291   1.352   0.041   2.684
   12        1.291   1.352   0.041   2.684
   13        1.291   1.352   0.041   2.684
   14        1.291   1.352   0.041   2.684
   15        1.291   1.352   0.041   2.684
   16        1.291   1.352   0.041   2.684
   17        1.291   1.352   0.041   2.684
   18        1.291   1.352   0.041   2.684
tot         23.238  24.332   0.740  48.309