 vasp.6.4.2 20Jul23 (build Nov 14 2023 12:59:38) complex

 executed on             LinuxIFC date 2023.12.17  08:38:11

 INCAR:
   ENCUT = 193.577625
   ALGO = Normal
   NELM = 200
   NELMIN = 6
   NELMDL = -12
   EDIFF = 1.0E-6
   AMIX = 0.1
   BMIX = 0.0001
   NBANDS = 16
   PREC = Accurate
   IVDW = 0
   ISPIN = 1
   ADDGRID = .TRUE.
   LASPH = .TRUE.
   NSW = 0
   EDIFFG = -0.010
   IBRION = 2
   ISIF = -1
   POTIM = 0.5
   STRESSTYPE = 2
   ISMEAR = 0
   SIGMA = 0.01
   LORBIT = 10
   NEDOS = 6001
   NWRITE = 1
   LWAVE = .FALSE.
   LCHARG = .FALSE.
   NCORE = 4
   LPLANE = .TRUE.

 POTCAR:    PAW_PBE Sb_GW 21Mar2012
 POTCAR:    PAW_PBE Sb_GW 21Mar2012

  PAW_PBE Sb_GW 21Mar2012               :

 POSCAR: pnictogen honeycomb monolayer
  positions in direct lattice
  velocities in cartesian coordinates
 exchange correlation table for  LEXCH =        8
   RHO(1)=    0.500       N(1)  =     2000
   RHO(2)=  100.500       N(2)  =     4000

 ion  position               nearest neighbor table
   1  0.667  0.333  0.449-   2 2.89   2 2.89   2 2.89
   2  0.333  0.667  0.551-   1 2.89   1 2.89   1 2.89

  LATTYP: Found a hexagonal cell.
 ALAT       =     4.1133665497
 C/A-ratio  =     3.8897578922

  Lattice vectors:

 A1 = (   4.1133665497,   0.0000000000,   0.0000000000)
 A2 = (  -2.0566832748,   3.5622799271,   0.0000000000)
 A3 = (   0.0000000000,   0.0000000000,  16.0000000000)

Analysis of symmetry for initial positions (statically):
 Subroutine PRICEL returns:
 Original cell was already a primitive cell.

 Routine SETGRP: Setting up the symmetry group for a
 hexagonal supercell.

 Subroutine GETGRP returns: Found 12 space group operations
 (whereof 12 operations were pure point group operations)
 out of a pool of 24 trial point group operations.

The static configuration has the point symmetry D_3d.

Analysis of symmetry for dynamics (positions and initial velocities):
 Subroutine PRICEL returns:
 Original cell was already a primitive cell.

 Routine SETGRP: Setting up the symmetry group for a
 hexagonal supercell.

 Subroutine GETGRP returns: Found 12 space group operations
 (whereof 12 operations were pure point group operations)
 out of a pool of 24 trial point group operations.

The dynamic configuration has the point symmetry D_3d.

 Subroutine INISYM returns: Found 12 space group operations
 (whereof 12 operations are pure point group operations),
 and found     1 'primitive' translations

                                     Primitive cell

  volume of cell :     234.4474

  direct lattice vectors                    reciprocal lattice vectors
     4.113366550  0.000000000  0.000000000     0.243109868  0.140359548  0.000000000
    -2.056683275  3.562279927  0.000000000     0.000000000  0.280719096  0.000000000
     0.000000000  0.000000000 16.000000000     0.000000000  0.000000000  0.062500000

  length of vectors
     4.113366550  4.113366550 16.000000000     0.280719096  0.280719096  0.062500000

  position of ions in fractional coordinates (direct lattice)
     0.666666667  0.333333333  0.448625398
     0.333333333  0.666666667  0.551374602

  ion indices of the primitive-cell ions
   primitive index   ion index
                 1           1
                 2           2

 KPOINTS: kpoints

Automatic generation of k-mesh.
 Grid dimensions read from file:
 generate k-points for:   22   22    1

 Generating k-lattice:

  Cartesian coordinates                     Fractional coordinates (reciprocal lattice)
     0.011050449  0.006379979  0.000000000     0.045454545  0.000000000  0.000000000
     0.000000000  0.012759959  0.000000000     0.000000000  0.045454545  0.000000000
     0.000000000  0.000000000  0.062500000     0.000000000  0.000000000  1.000000000

  Length of vectors
     0.012759959  0.012759959  0.062500000

  Shift w.r.t. Gamma in fractional coordinates (k-lattice)
     0.000000000  0.000000000  0.000000000

 Subroutine IBZKPT returns following result:

 Found     52 irreducible k-points:

 Following reciprocal coordinates:
            Coordinates               Weight
  0.000000  0.000000  0.000000      1.000000
  0.045455  0.000000  0.000000      6.000000
  0.090909  0.000000  0.000000      6.000000
  0.136364  0.000000  0.000000      6.000000
  0.181818  0.000000  0.000000      6.000000
  0.227273  0.000000  0.000000      6.000000
  0.272727  0.000000  0.000000      6.000000
  0.318182  0.000000  0.000000      6.000000
  0.363636  0.000000  0.000000      6.000000
  0.409091  0.000000  0.000000      6.000000
  0.454545  0.000000  0.000000      6.000000
  0.500000  0.000000  0.000000      3.000000
  0.045455  0.045455  0.000000      6.000000
  0.090909  0.045455  0.000000     12.000000
  0.136364  0.045455  0.000000     12.000000
  0.181818  0.045455  0.000000     12.000000
  0.227273  0.045455  0.000000     12.000000
  0.272727  0.045455  0.000000     12.000000
  0.318182  0.045455  0.000000     12.000000
  0.363636  0.045455  0.000000     12.000000
  0.409091  0.045455  0.000000     12.000000
  0.454545  0.045455  0.000000     12.000000
  0.090909  0.090909  0.000000      6.000000
  0.136364  0.090909  0.000000     12.000000
  0.181818  0.090909  0.000000     12.000000
  0.227273  0.090909  0.000000     12.000000
  0.272727  0.090909  0.000000     12.000000
  0.318182  0.090909  0.000000     12.000000
  0.363636  0.090909  0.000000     12.000000
  0.409091  0.090909  0.000000     12.000000
  0.454545  0.090909  0.000000      6.000000
  0.136364  0.136364  0.000000      6.000000
  0.181818  0.136364  0.000000     12.000000
  0.227273  0.136364  0.000000     12.000000
  0.272727  0.136364  0.000000     12.000000
  0.318182  0.136364  0.000000     12.000000
  0.363636  0.136364  0.000000     12.000000
  0.409091  0.136364  0.000000     12.000000
  0.181818  0.181818  0.000000      6.000000
  0.227273  0.181818  0.000000     12.000000
  0.272727  0.181818  0.000000     12.000000
  0.318182  0.181818  0.000000     12.000000
  0.363636  0.181818  0.000000     12.000000
  0.409091  0.181818  0.000000      6.000000
  0.227273  0.227273  0.000000      6.000000
  0.272727  0.227273  0.000000     12.000000
  0.318182  0.227273  0.000000     12.000000
  0.363636  0.227273  0.000000     12.000000
  0.272727  0.272727  0.000000      6.000000
  0.318182  0.272727  0.000000     12.000000
  0.363636  0.272727  0.000000      6.000000
  0.318182  0.318182  0.000000      6.000000

 Following cartesian coordinates:
            Coordinates               Weight
  0.000000  0.000000  0.000000      1.000000
  0.011050  0.006380  0.000000      6.000000
  0.022101  0.012760  0.000000      6.000000
  0.033151  0.019140  0.000000      6.000000
  0.044202  0.025520  0.000000      6.000000
  0.055252  0.031900  0.000000      6.000000
  0.066303  0.038280  0.000000      6.000000
  0.077353  0.044660  0.000000      6.000000
  0.088404  0.051040  0.000000      6.000000
  0.099454  0.057420  0.000000      6.000000
  0.110504  0.063800  0.000000      6.000000
  0.121555  0.070180  0.000000      3.000000
  0.011050  0.019140  0.000000      6.000000
  0.022101  0.025520  0.000000     12.000000
  0.033151  0.031900  0.000000     12.000000
  0.044202  0.038280  0.000000     12.000000
  0.055252  0.044660  0.000000     12.000000
  0.066303  0.051040  0.000000     12.000000
  0.077353  0.057420  0.000000     12.000000
  0.088404  0.063800  0.000000     12.000000
  0.099454  0.070180  0.000000     12.000000
  0.110504  0.076560  0.000000     12.000000
  0.022101  0.038280  0.000000      6.000000
  0.033151  0.044660  0.000000     12.000000
  0.044202  0.051040  0.000000     12.000000
  0.055252  0.057420  0.000000     12.000000
  0.066303  0.063800  0.000000     12.000000
  0.077353  0.070180  0.000000     12.000000
  0.088404  0.076560  0.000000     12.000000
  0.099454  0.082940  0.000000     12.000000
  0.110504  0.089320  0.000000      6.000000
  0.033151  0.057420  0.000000      6.000000
  0.044202  0.063800  0.000000     12.000000
  0.055252  0.070180  0.000000     12.000000
  0.066303  0.076560  0.000000     12.000000
  0.077353  0.082940  0.000000     12.000000
  0.088404  0.089320  0.000000     12.000000
  0.099454  0.095700  0.000000     12.000000
  0.044202  0.076560  0.000000      6.000000
  0.055252  0.082940  0.000000     12.000000
  0.066303  0.089320  0.000000     12.000000
  0.077353  0.095700  0.000000     12.000000
  0.088404  0.102080  0.000000     12.000000
  0.099454  0.108460  0.000000      6.000000
  0.055252  0.095700  0.000000      6.000000
  0.066303  0.102080  0.000000     12.000000
  0.077353  0.108460  0.000000     12.000000
  0.088404  0.114840  0.000000     12.000000
  0.066303  0.114840  0.000000      6.000000
  0.077353  0.121220  0.000000     12.000000
  0.088404  0.127600  0.000000      6.000000
  0.077353  0.133980  0.000000      6.000000

 SYSTEM =  unknown system
 POSCAR =  pnictogen honeycomb monolayer

 Startparameter for this run:
   NWRITE =      1    write-flag & timer
   PREC   = accura    normal or accurate (medium, high low for compatibility)
   ISTART =      0    job   : 0-new  1-cont  2-samecut
   ICHARG =      2    charge: 1-file 2-atom 10-const
   ISPIN  =      1    spin polarized calculation?
   LNONCOLLINEAR =      F non collinear calculations
   LSORBIT =      F    spin-orbit coupling
   INIWAV =      1    electr: 0-lowe 1-rand  2-diag
   LASPH  =      T    aspherical Exc in radial PAW
 Electronic Relaxation 1
   ENCUT  =  193.6 eV  14.23 Ry    3.77 a.u.   4.67  4.67 18.15*2*pi/ulx,y,z
   ENINI  =  193.6     initial cutoff
   ENAUG  =  560.6 eV  augmentation charge cutoff
   NELM   =    200;   NELMIN=  6; NELMDL=-12     # of ELM steps
   EDIFF  = 0.1E-05   stopping-criterion for ELM
   LREAL  =      F    real-space projection
   NLSPLINE    = F    spline interpolate recip. space projectors
   LCOMPAT=      F    compatible to vasp.4.4
   GGA_COMPAT  = T    GGA compatible to vasp.4.4-vasp.4.6
   LMAXPAW     = -100 max onsite density
   LMAXMIX     =    2 max onsite mixed and CHGCAR
   VOSKOWN=      0    Vosko Wilk Nusair interpolation
   ROPT   =    0.00000
 Ionic relaxation
   EDIFFG = -.1E-01   stopping-criterion for IOM
   NSW    =      0    number of steps for IOM
   NBLOCK =      1;   KBLOCK =      1    inner block; outer block
   IBRION =     -1    ionic relax: 0-MD 1-quasi-New 2-CG
   NFREE  =      1    steps in history (QN), initial steepest desc. (CG)
   ISIF   =     -1    stress and relaxation
   IWAVPR =     10    prediction:  0-non 1-charg 2-wave 3-comb
   ISYM   =      2    0-nonsym 1-usesym 2-fastsym
   LCORR  =      T    Harris-Foulkes like correction to forces

   POTIM  = 0.5000    time-step for ionic-motion
   TEIN   =    0.0    initial temperature
   TEBEG  =    0.0;   TEEND  =   0.0 temperature during run
   SMASS  =  -3.00    Nose mass-parameter (am)
   estimated Nose-frequenzy (Omega)   =  0.10E-29 period in steps = 0.13E+47 mass=  -0.387E-27a.u.
   SCALEE = 1.0000    scale energy and forces
   NPACO  =    256;   APACO  = 10.0  distance and # of slots for P.C.
   PSTRESS=    0.0 pullay stress

  Mass of Ions in am
   POMASS = 121.75
  Ionic Valenz
   ZVAL   =   5.00
  Atomic Wigner-Seitz radii
  virtual crystal weights
[...]
   DQ        =  0.001000  dq finite difference perturbation B field
   LLRAUG    =     F  two centre corrections for induced B field
   LBONE     =     F  B-component reconstruction in AE one-centre
   LVGVCALC  =     T  calculate vGv susceptibility
   LVGVAPPL  =     F  apply vGv susceptibility instead of pGv for G=0

 Random number generation:
   RANDOM_GENERATOR = DEFAULT
   PCG_SEED         = not used

 Static calculation
 charge density and potential will be updated during run
 non-spin polarized calculation
 Variant of blocked Davidson
 Davidson routine will perform the subspace rotation
 perform sub-space diagonalisation
    after iterative eigenvector-optimisation
 modified Broyden-mixing scheme, WC =      100.0
 initial mixing is a Kerker type mixing with AMIX =  0.1000 and BMIX =      0.0001
 Hartree-type preconditioning will be used
 using additional bands           11
 reciprocal scheme for non local part
 use partial core corrections
 calculate Harris-corrections to forces
   (improved forces if not selfconsistent)
 use gradient corrections
 use of overlap-Matrix (Vanderbilt PP)
 Gauss-broadening in eV      SIGMA  =   0.01

  energy-cutoff  :      193.58
  volume of cell :      234.45
      direct lattice vectors                 reciprocal lattice vectors
     4.113366550  0.000000000  0.000000000     0.243109868  0.140359548  0.000000000
    -2.056683275  3.562279927  0.000000000     0.000000000  0.280719096  0.000000000
     0.000000000  0.000000000 16.000000000     0.000000000  0.000000000  0.062500000

  length of vectors
     4.113366550  4.113366550 16.000000000     0.280719096  0.280719096  0.062500000

 k-points in units of 2pi/SCALE and weight: kpoints
   0.00000000  0.00000000  0.00000000       0.002
   0.01105045  0.00637998  0.00000000       0.012
   0.02210090  0.01275996  0.00000000       0.012
   0.03315135  0.01913994  0.00000000       0.012
   0.04420179  0.02551992  0.00000000       0.012
   0.05525224  0.03189990  0.00000000       0.012
   0.06630269  0.03827988  0.00000000       0.012
   0.07735314  0.04465986  0.00000000       0.012
   0.08840359  0.05103984  0.00000000       0.012
   0.09945404  0.05741982  0.00000000       0.012
   0.11050449  0.06379979  0.00000000       0.012
   0.12155493  0.07017977  0.00000000       0.006
   0.01105045  0.01913994  0.00000000       0.012
   0.02210090  0.02551992  0.00000000       0.025
   0.03315135  0.03189990  0.00000000       0.025
   0.04420179  0.03827988  0.00000000       0.025
   0.05525224  0.04465986  0.00000000       0.025
   0.06630269  0.05103984  0.00000000       0.025
   0.07735314  0.05741982  0.00000000       0.025
   0.08840359  0.06379979  0.00000000       0.025
   0.09945404  0.07017977  0.00000000       0.025
   0.11050449  0.07655975  0.00000000       0.025
   0.02210090  0.03827988  0.00000000       0.012
   0.03315135  0.04465986  0.00000000       0.025
   0.04420179  0.05103984  0.00000000       0.025
   0.05525224  0.05741982  0.00000000       0.025
   0.06630269  0.06379979  0.00000000       0.025
   0.07735314  0.07017977  0.00000000       0.025
   0.08840359  0.07655975  0.00000000       0.025
   0.09945404  0.08293973  0.00000000       0.025
   0.11050449  0.08931971  0.00000000       0.012
   0.03315135  0.05741982  0.00000000       0.012
   0.04420179  0.06379979  0.00000000       0.025
   0.05525224  0.07017977  0.00000000       0.025
   0.06630269  0.07655975  0.00000000       0.025
   0.07735314  0.08293973  0.00000000       0.025
   0.08840359  0.08931971  0.00000000       0.025
   0.09945404  0.09569969  0.00000000       0.025
   0.04420179  0.07655975  0.00000000       0.012
   0.05525224  0.08293973  0.00000000       0.025
   0.06630269  0.08931971  0.00000000       0.025
   0.07735314  0.09569969  0.00000000       0.025
   0.08840359  0.10207967  0.00000000       0.025
   0.09945404  0.10845965  0.00000000       0.012
   0.05525224  0.09569969  0.00000000       0.012
   0.06630269  0.10207967  0.00000000       0.025
   0.07735314  0.10845965  0.00000000       0.025
   0.08840359  0.11483963  0.00000000       0.025
   0.06630269  0.11483963  0.00000000       0.012
   0.07735314  0.12121961  0.00000000       0.025
   0.08840359  0.12759959  0.00000000       0.012
   0.07735314  0.13397957  0.00000000       0.012

 k-points in reciprocal lattice and weights: kpoints
   0.00000000  0.00000000  0.00000000       0.002
   0.04545455  0.00000000  0.00000000       0.012
   0.09090909  0.00000000  0.00000000       0.012
   0.13636364  0.00000000  0.00000000       0.012
   0.18181818  0.00000000  0.00000000       0.012
   0.22727273  0.00000000  0.00000000       0.012
   0.27272727  0.00000000  0.00000000       0.012
   0.31818182  0.00000000  0.00000000       0.012
   0.36363636  0.00000000  0.00000000       0.012
   0.40909091  0.00000000  0.00000000       0.012
   0.45454545  0.00000000  0.00000000       0.012
   0.50000000  0.00000000  0.00000000       0.006
   0.04545455  0.04545455  0.00000000       0.012
   0.09090909  0.04545455  0.00000000       0.025
   0.13636364  0.04545455  0.00000000       0.025
   0.18181818  0.04545455  0.00000000       0.025
   0.22727273  0.04545455  0.00000000       0.025
   0.27272727  0.04545455  0.00000000       0.025
   0.31818182  0.04545455  0.00000000       0.025
   0.36363636  0.04545455  0.00000000       0.025
   0.40909091  0.04545455  0.00000000       0.025
   0.45454545  0.04545455  0.00000000       0.025
   0.09090909  0.09090909  0.00000000       0.012
   0.13636364  0.09090909  0.00000000       0.025
   0.18181818  0.09090909  0.00000000       0.025
   0.22727273  0.09090909  0.00000000       0.025
   0.27272727  0.09090909  0.00000000       0.025
   0.31818182  0.09090909  0.00000000       0.025
   0.36363636  0.09090909  0.00000000       0.025
   0.40909091  0.09090909  0.00000000       0.025
   0.45454545  0.09090909  0.00000000       0.012
   0.13636364  0.13636364  0.00000000       0.012
   0.18181818  0.13636364  0.00000000       0.025
   0.22727273  0.13636364  0.00000000       0.025
   0.27272727  0.13636364  0.00000000       0.025
   0.31818182  0.13636364  0.00000000       0.025
   0.36363636  0.13636364  0.00000000       0.025
   0.40909091  0.13636364  0.00000000       0.025
   0.18181818  0.18181818  0.00000000       0.012
   0.22727273  0.18181818  0.00000000       0.025
   0.27272727  0.18181818  0.00000000       0.025
   0.31818182  0.18181818  0.00000000       0.025
   0.36363636  0.18181818  0.00000000       0.025
   0.40909091  0.18181818  0.00000000       0.012
   0.22727273  0.22727273  0.00000000       0.012
   0.27272727  0.22727273  0.00000000       0.025
   0.31818182  0.22727273  0.00000000       0.025
   0.36363636  0.22727273  0.00000000       0.025
   0.27272727  0.27272727  0.00000000       0.012
   0.31818182  0.27272727  0.00000000       0.025
   0.36363636  0.27272727  0.00000000       0.012
   0.31818182  0.31818182  0.00000000       0.012

 position of ions in fractional coordinates (direct lattice)
   0.66666667  0.33333333  0.44862540
   0.33333333  0.66666667  0.55137460

 position of ions in cartesian coordinates  (Angst):
   2.05668327  1.18742664  7.17800637
   0.00000000  2.37485328  8.82199363

 k-point   1 :   0.0000 0.0000 0.0000  plane waves:    1453
 k-point   2 :   0.0455 0.0000 0.0000  plane waves:    1440
 k-point   3 :   0.0909 0.0000 0.0000  plane waves:    1428
 k-point   4 :   0.1364 0.0000 0.0000  plane waves:    1444
 k-point   5 :   0.1818 0.0000 0.0000  plane waves:    1446
 k-point   6 :   0.2273 0.0000 0.0000  plane waves:    1430
 k-point   7 :   0.2727 0.0000 0.0000  plane waves:    1440
 k-point   8 :   0.3182 0.0000 0.0000  plane waves:    1430
 k-point   9 :   0.3636 0.0000 0.0000  plane waves:    1436
 k-point  10 :   0.4091 0.0000 0.0000  plane waves:    1438
 k-point  11 :   0.4545 0.0000 0.0000  plane waves:    1444
 k-point  12 :   0.5000 0.0000 0.0000  plane waves:    1440
 k-point  13 :   0.0455 0.0455 0.0000  plane waves:    1441
 k-point  14 :   0.0909 0.0455 0.0000  plane waves:    1449
 k-point  15 :   0.1364 0.0455 0.0000  plane waves:    1446
 k-point  16 :   0.1818 0.0455 0.0000  plane waves:    1444
 k-point  17 :   0.2273 0.0455 0.0000  plane waves:    1436
 k-point  18 :   0.2727 0.0455 0.0000  plane waves:    1432
 k-point  19 :   0.3182 0.0455 0.0000  plane waves:    1435
 k-point  20 :   0.3636 0.0455 0.0000  plane waves:    1439
 k-point  21 :   0.4091 0.0455 0.0000  plane waves:    1439
 k-point  22 :   0.4545 0.0455 0.0000  plane waves:    1434
 k-point  23 :   0.0909 0.0909 0.0000  plane waves:    1451
 k-point  24 :   0.1364 0.0909 0.0000  plane waves:    1445
 k-point  25 :   0.1818 0.0909 0.0000  plane waves:    1438
 k-point  26 :   0.2273 0.0909 0.0000  plane waves:    1442
 k-point  27 :   0.2727 0.0909 0.0000  plane waves:    1431
 k-point  28 :   0.3182 0.0909 0.0000  plane waves:    1432
 k-point  29 :   0.3636 0.0909 0.0000  plane waves:    1433
 k-point  30 :   0.4091 0.0909 0.0000  plane waves:    1436
 k-point  31 :   0.4545 0.0909 0.0000  plane waves:    1442
 k-point  32 :   0.1364 0.1364 0.0000  plane waves:    1447
 k-point  33 :   0.1818 0.1364 0.0000  plane waves:    1439
 k-point  34 :   0.2273 0.1364 0.0000  plane waves:    1433
 k-point  35 :   0.2727 0.1364 0.0000  plane waves:    1432
 k-point  36 :   0.3182 0.1364 0.0000  plane waves:    1436
 k-point  37 :   0.3636 0.1364 0.0000  plane waves:    1426
 k-point  38 :   0.4091 0.1364 0.0000  plane waves:    1429
 k-point  39 :   0.1818 0.1818 0.0000  plane waves:    1427
 k-point  40 :   0.2273 0.1818 0.0000  plane waves:    1433
 k-point  41 :   0.2727 0.1818 0.0000  plane waves:    1434
 k-point  42 :   0.3182 0.1818 0.0000  plane waves:    1428
 k-point  43 :   0.3636 0.1818 0.0000  plane waves:    1424
 k-point  44 :   0.4091 0.1818 0.0000  plane waves:    1420
 k-point  45 :   0.2273 0.2273 0.0000  plane waves:    1437
 k-point  46 :   0.2727 0.2273 0.0000  plane waves:    1430
 k-point  47 :   0.3182 0.2273 0.0000  plane waves:    1422
 k-point  48 :   0.3636 0.2273 0.0000  plane waves:    1421
 k-point  49 :   0.2727 0.2727 0.0000  plane waves:    1411
 k-point  50 :   0.3182 0.2727 0.0000  plane waves:    1414
 k-point  51 :   0.3636 0.2727 0.0000  plane waves:    1410
 k-point  52 :   0.3182 0.3182 0.0000  plane waves:    1395

 maximum and minimum number of plane-waves per node :       372      346

 maximum number of plane-waves:      1453
 maximum index in each direction:
   IXMAX=    4   IYMAX=    4   IZMAX=   18
   IXMIN=   -5   IYMIN=   -4   IZMIN=  -18

 parallel 3D FFT for wavefunctions:
    minimum data exchange during FFTs selected (reduces bandwidth)
 parallel 3D FFT for charge:
    minimum data exchange during FFTs selected (reduces bandwidth)

 Broyden mixing: mesh for mixing (old mesh)
   NGX =  9   NGY =  9   NGZ = 37
  (NGX  = 40   NGY  = 40   NGZ  =160)
  gives a total of   2997 points

 initial charge density was supplied:
 charge density of overlapping atoms calculated
 number of electron      10.0000000 magnetization
 keeping initial charge density in first step

 Maximum index for augmentation-charges         3590 (set IRDMAX)

 First call to EWALD:  gamma=   0.287
 Maximum number of real-space cells 4x 4x 1
 Maximum number of reciprocal cells 2x 2x 6

--------------------------------------- Ionic step        1  -------------------------------------------

--------------------------------------- Iteration      1(   1)  ---------------------------------------

 eigenvalue-minimisations  :  1696
 total energy-change (2. order) : 0.2821457E+02  (-0.1701755E+03)
 number of electron      10.0000000 magnetization
 augmentation part       10.0000000 magnetization

 Free energy of the ion-electron system (eV)
  alpha Z        PSCENC =         2.97593478
  Ewald energy   TEWEN  =       213.91894841
  -Hartree energ DENC   =      -467.82089709
  -exchange      EXHF   =         0.00000000
  -V(xc)+E(xc)   XCENC  =       -92.70009852
  PAW double counting   =       327.35893868     -219.44694627
  entropy T*S    EENTRO =        -0.00008306
  eigenvalues    EBANDS =       -35.96340243
  atomic energy  EATOM  =       299.89217194
  Solvation  Ediel_sol  =         0.00000000
  free energy    TOTEN  =        28.21456645 eV

  energy without entropy =       28.21464951  energy(sigma->0) =       28.21460798

[...]

 eigenvalue-minimisations  :  2344
 total energy-change (2. order) :-0.3414547E+02  (-0.3232495E+02)
 number of electron      10.0000000 magnetization
 augmentation part       10.0000000 magnetization

[...]

 eigenvalue-minimisations  :  1064
 total energy-change (2. order) :-0.2614797E-10  (-0.2110235E-10)
 number of electron      10.0000000 magnetization
 augmentation part       -1.6409898 magnetization

 Broyden mixing:
  rms(total) = 0.15908E+00    rms(broyden)= 0.15849E+00
  rms(prec ) = 0.18279E+00
  weight for this iteration     100.00

[...]

 eigenvalues of (default mixing * dielectric matrix)
  average eigenvalue GAMMA=   8.9525
  8.9525

[...]

 Broyden mixing:
  rms(total) = 0.54322E-03    rms(broyden)= 0.54270E-03
  rms(prec ) = 0.65855E-03
  weight for this iteration     100.00

 eigenvalues of (default mixing * dielectric matrix)
  average eigenvalue GAMMA=   4.4372
  9.9312  7.2187  4.6558  2.8196  0.9991  0.9991

[...]

--------------------------------------- Iteration      1(  19)  ---------------------------------------

 eigenvalue-minimisations  :  2128
 total energy-change (2. order) : 0.9732009E-06  (-0.5402388E-06)
 number of electron      10.0000000 magnetization
 augmentation part       -1.6257203 magnetization

 Free energy of the ion-electron system (eV)
  alpha Z        PSCENC =         2.97593478
  Ewald energy   TEWEN  =       213.91894841
  -Hartree energ DENC   =      -472.85403951
  -exchange      EXHF   =         0.00000000
  -V(xc)+E(xc)   XCENC  =       -92.29579511
  PAW double counting   =       366.57330577     -258.80248729
  entropy T*S    EENTRO =        -0.00000000
  eigenvalues    EBANDS =       -67.52587372
  atomic energy  EATOM  =       299.89217194
  Solvation  Ediel_sol  =         0.00000000
  free energy    TOTEN  =        -8.11783474 eV

  energy without entropy =       -8.11783474  energy(sigma->0) =       -8.11783474

 average (electrostatic) potential at core
  the test charge radii are     1.1712
  (the norm of the test charge is              1.0000)
       1 -80.9069       2 -80.9069

 E-fermi :  -2.2433     XC(G=0):  -3.3507     alpha+bet : -2.6626

 Fermi energy:        -2.2432765950

 k-point     1 :       0.0000    0.0000    0.0000
  band No.  band energies     occupation
      1     -13.5652      2.00000
      2      -8.5922      2.00000
      3      -2.8908      2.00000
      4      -2.2843      2.00000
      5      -2.2843      2.00000
      6      -0.7176      0.00000
      7       0.5060      0.00000
      8       0.5060      0.00000
      9       2.0897      0.00000
     10       2.1680      0.00000
     11       3.6261      0.00000
     12       4.5298      0.00000
     13       4.8442      0.00000
     14       5.8845      0.00000
     15       5.8845      0.00000
     16       6.4952      0.00000

[...]

 k-point    52 :       0.3182    0.3182    0.0000
  band No.  band energies     occupation
      1     -10.9237      2.00000
      2     -10.6034      2.00000
      3      -5.7868      2.00000
      4      -4.1974      2.00000
      5      -3.9551      2.00000
      6      -0.7695      0.00000
      7       1.1829      0.00000
      8       1.3708      0.00000
      9       4.3636      0.00000
     10       4.8561      0.00000
     11       4.9675      0.00000
     12       5.5017      0.00000
     13       5.7239      0.00000
     14       5.8548      0.00000
     15       6.0245      0.00000
     16       6.2902      0.00000

 soft charge-density along one line, spin component           1
         0         1         2         3         4         5         6         7         8         9
 total charge-density along one line

------------------------ aborting loop because EDIFF is reached ----------------------------------------

 total charge

# of ion       s       p       d       f       tot
    1        1.581   1.846   0.079   0.012   3.518
    2        1.581   1.846   0.079   0.012   3.518
tot          3.162   3.692   0.158   0.025   7.036

  FREE ENERGIE OF THE ION-ELECTRON SYSTEM (eV)
  free  energy   TOTEN  =        -8.11783474 eV

  energy  without entropy=       -8.11783474  energy(sigma->0) =       -8.11783474

 total charge

# of ion       s       p       d       f       tot
    1        1.581   1.846   0.079   0.012   3.518
    2        1.581   1.846   0.079   0.012   3.518
tot          3.162   3.692   0.158   0.025   7.036