 vasp.6.4.2 20Jul23 (build Nov 14 2023 12:59:38) complex

 executed on             LinuxIFC date 2023.12.16  19:22:52

 INCAR:
   ENCUT = 293.0600
   ALGO = Normal
   NELM = 200
   NELMIN = 6
   NELMDL = -12
   EDIFF = 1.0E-6
   AMIX = 0.1
   BMIX = 0.0001
   PREC = Accurate
   IVDW = 0
   ISPIN = 1
   ADDGRID = .TRUE.
   LASPH = .TRUE.
   NSW = 30
   EDIFFG = -0.010
   IBRION = 2
   ISIF = 3
   POTIM = 0.5
   STRESSTYPE = 2
   ISMEAR = 0
   SIGMA = 0.01
   LORBIT = 10
   NEDOS = 6001
   NWRITE = 1
   LWAVE = .FALSE.
   LCHARG = .FALSE.
   NCORE = 4
   LPLANE = .TRUE.

 POTCAR:    PAW_PBE Bi_GW 07Mar2011
 POTCAR:    PAW_PBE Bi_GW 07Mar2011

  PAW_PBE Bi_GW 07Mar2011               :

 POSCAR: pnictogen honeycomb monolayer
  positions in direct lattice
  velocities in cartesian coordinates
 exchange correlation table for  LEXCH =        8
   RHO(1)=    0.500       N(1)  =     2000
   RHO(2)=  100.500       N(2)  =     4000

 ion  position               nearest neighbor table
   1  0.667  0.333  0.446-   2 3.05   2 3.05   2 3.05
   2  0.333  0.667  0.554-   1 3.05   1 3.05   1 3.05

  LATTYP: Found a hexagonal cell.
 ALAT       =     4.3324293844
 C/A-ratio  =     3.6930780817

  Lattice vectors:

 A1 = (   4.3324293844,   0.0000000000,   0.0000000000)
 A2 = (  -2.1662146922,   3.7519939070,   0.0000000000)
 A3 = (   0.0000000000,   0.0000000000,  16.0000000000)

Analysis of symmetry for initial positions (statically):
 Subroutine PRICEL returns:
 Original cell was already a primitive cell.

 Routine SETGRP: Setting up the symmetry group for a
 hexagonal supercell.

 Subroutine GETGRP returns: Found 12 space group operations
 (whereof 12 operations were pure point group operations)
 out of a pool of 24 trial point group operations.

The static configuration has the point symmetry D_3d.

Analysis of symmetry for dynamics (positions and initial velocities):
 Subroutine PRICEL returns:
 Original cell was already a primitive cell.

 Routine SETGRP: Setting up the symmetry group for a
 hexagonal supercell.

 Subroutine GETGRP returns: Found 12 space group operations
 (whereof 12 operations were pure point group operations)
 out of a pool of 24 trial point group operations.

The dynamic configuration has the point symmetry D_3d.

 Subroutine INISYM returns: Found 12 space group operations
 (whereof 12 operations are pure point group operations),
 and found     1 'primitive' translations

                                     Primitive cell

  volume of cell :     260.0840

  direct lattice vectors                    reciprocal lattice vectors
     4.332429384  0.000000000  0.000000000     0.230817380  0.133262477  0.000000000
    -2.166214692  3.751993907  0.000000000     0.000000000  0.266524953  0.000000000
     0.000000000  0.000000000 16.000000000     0.000000000  0.000000000  0.062500000

  length of vectors
     4.332429384  4.332429384 16.000000000     0.266524953  0.266524953  0.062500000

  position of ions in fractional coordinates (direct lattice)
     0.666666667  0.333333333  0.445705884
     0.333333333  0.666666667  0.554294116

  ion indices of the primitive-cell ions
   primitive index   ion index
                 1           1
                 2           2

 KPOINTS: Fully automatic mesh

Automatic generation of k-mesh.
 Grid dimensions derived from RKLEN:
 generate k-points for:   11   11    3

 Generating k-lattice:

  Cartesian coordinates                     Fractional coordinates (reciprocal lattice)
     0.020983398  0.012114771  0.000000000     0.090909091  0.000000000  0.000000000
     0.000000000  0.024229541  0.000000000     0.000000000  0.090909091  0.000000000
     0.000000000  0.000000000  0.020833333     0.000000000  0.000000000  0.333333333

  Length of vectors
     0.024229541  0.024229541  0.020833333

  Shift w.r.t. Gamma in fractional coordinates (k-lattice)
     0.000000000  0.000000000  0.000000000

 Subroutine IBZKPT returns following result:

 Found     42 irreducible k-points:

 Following reciprocal coordinates:
            Coordinates               Weight
  0.000000  0.000000  0.000000      1.000000
  0.090909 -0.000000  0.000000      6.000000
  0.181818  0.000000  0.000000      6.000000
  0.272727  0.000000  0.000000      6.000000
  0.363636 -0.000000  0.000000      6.000000
  0.454545 -0.000000  0.000000      6.000000
  0.090909  0.090909  0.000000      6.000000
  0.181818  0.090909  0.000000     12.000000
  0.272727  0.090909  0.000000     12.000000
  0.363636  0.090909  0.000000     12.000000
  0.454545  0.090909  0.000000      6.000000
  0.181818  0.181818  0.000000      6.000000
  0.272727  0.181818  0.000000     12.000000
  0.363636  0.181818  0.000000     12.000000
  0.272727  0.272727  0.000000      6.000000
  0.363636  0.272727  0.000000      6.000000
  0.000000  0.000000  0.333333      2.000000
  0.090909 -0.000000  0.333333      6.000000
  0.000000  0.090909  0.333333      6.000000
  0.181818  0.000000  0.333333      6.000000
  0.000000  0.181818  0.333333      6.000000
  0.272727  0.000000  0.333333      6.000000
  0.000000  0.272727  0.333333      6.000000
  0.363636 -0.000000  0.333333      6.000000
  0.000000  0.363636  0.333333      6.000000
  0.454545 -0.000000  0.333333      6.000000
  0.000000  0.454545  0.333333      6.000000
  0.090909  0.090909  0.333333     12.000000
  0.181818  0.090909  0.333333     12.000000
 -0.090909  0.272727  0.333333     12.000000
  0.272727  0.090909  0.333333     12.000000
 -0.090909  0.363636  0.333333     12.000000
  0.363636  0.090909  0.333333     12.000000
 -0.090909  0.454545  0.333333     12.000000
  0.454545  0.090909  0.333333     12.000000
  0.181818  0.181818  0.333333     12.000000
  0.272727  0.181818  0.333333     12.000000
 -0.181818  0.454545  0.333333     12.000000
  0.363636  0.181818  0.333333     12.000000
 -0.181818 -0.454545  0.333333     12.000000
  0.272727  0.272727  0.333333     12.000000
  0.363636  0.272727  0.333333     12.000000

 Following cartesian coordinates:
            Coordinates               Weight
  0.000000  0.000000  0.000000      1.000000
  0.020983  0.012115  0.000000      6.000000
  0.041967  0.024230  0.000000      6.000000
  0.062950  0.036344  0.000000      6.000000
  0.083934  0.048459  0.000000      6.000000
  0.104917  0.060574  0.000000      6.000000
  0.020983  0.036344  0.000000      6.000000
  0.041967  0.048459  0.000000     12.000000
  0.062950  0.060574  0.000000     12.000000
  0.083934  0.072689  0.000000     12.000000
  0.104917  0.084803  0.000000      6.000000
  0.041967  0.072689  0.000000      6.000000
  0.062950  0.084803  0.000000     12.000000
  0.083934  0.096918  0.000000     12.000000
  0.062950  0.109033  0.000000      6.000000
  0.083934  0.121148  0.000000      6.000000
  0.000000  0.000000  0.020833      2.000000
  0.020983  0.012115  0.020833      6.000000
  0.000000  0.024230  0.020833      6.000000
  0.041967  0.024230  0.020833      6.000000
  0.000000  0.048459  0.020833      6.000000
  0.062950  0.036344  0.020833      6.000000
  0.000000  0.072689  0.020833      6.000000
  0.083934  0.048459  0.020833      6.000000
  0.000000  0.096918  0.020833      6.000000
  0.104917  0.060574  0.020833      6.000000
  0.000000  0.121148  0.020833      6.000000
  0.020983  0.036344  0.020833     12.000000
  0.041967  0.048459  0.020833     12.000000
 -0.020983  0.060574  0.020833     12.000000
  0.062950  0.060574  0.020833     12.000000
 -0.020983  0.084803  0.020833     12.000000
  0.083934  0.072689  0.020833     12.000000
 -0.020983  0.109033  0.020833     12.000000
  0.104917  0.084803  0.020833     12.000000
  0.041967  0.072689  0.020833     12.000000
  0.062950  0.084803  0.020833     12.000000
 -0.041967  0.096918  0.020833     12.000000
  0.083934  0.096918  0.020833     12.000000
 -0.041967 -0.145377  0.020833     12.000000
  0.062950  0.109033  0.020833     12.000000
  0.083934  0.121148  0.020833     12.000000

 SYSTEM =  unknown system
 POSCAR =  pnictogen honeycomb monolayer

 Startparameter for this run:
   NWRITE =      1    write-flag & timer
   PREC   = accura    normal or accurate (medium, high low for compatibility)
   ISTART =      0    job   : 0-new  1-cont  2-samecut
   ICHARG =      2    charge: 1-file 2-atom 10-const
   ISPIN  =      1    spin polarized calculation?
   LNONCOLLINEAR =      F non collinear calculations
   LSORBIT =      F    spin-orbit coupling
   INIWAV =      1    electr: 0-lowe 1-rand  2-diag
   LASPH  =      T    aspherical Exc in radial PAW
 Electronic Relaxation 1
   ENCUT  =  293.1 eV  21.54 Ry    4.64 a.u.   6.05  6.05 22.33*2*pi/ulx,y,z
   ENINI  =  293.1     initial cutoff
   ENAUG  =  444.5 eV  augmentation charge cutoff
   NELM   =    200;   NELMIN=  6; NELMDL=-12     # of ELM steps
   EDIFF  = 0.1E-05   stopping-criterion for ELM
   LREAL  =      F    real-space projection
   NLSPLINE    = F    spline interpolate recip. space projectors
   LCOMPAT=      F    compatible to vasp.4.4
   GGA_COMPAT  = T    GGA compatible to vasp.4.4-vasp.4.6
   LMAXPAW     = -100 max onsite density
   LMAXMIX     =    2 max onsite mixed and CHGCAR
   VOSKOWN=      0    Vosko Wilk Nusair interpolation
   ROPT   =    0.00000
 Ionic relaxation
   EDIFFG = -.1E-01   stopping-criterion for IOM
   NSW    =     30    number of steps for IOM
   NBLOCK =      1;   KBLOCK =     30    inner block; outer block
   IBRION =      2    ionic relax: 0-MD 1-quasi-New 2-CG
   NFREE  =      1    steps in history (QN), initial steepest desc. (CG)
   ISIF   =      3    stress and relaxation
   IWAVPR =     11    prediction:  0-non 1-charg 2-wave 3-comb
   ISYM   =      2    0-nonsym 1-usesym 2-fastsym
   LCORR  =      T    Harris-Foulkes like correction to forces

   POTIM  = 0.5000    time-step for ionic-motion
   TEIN   =    0.0    initial temperature
   TEBEG  =    0.0;   TEEND  =   0.0 temperature during run
   SMASS  =  -3.00    Nose mass-parameter (am)
   estimated Nose-frequenzy (Omega)   =  0.10E-29 period in steps = 0.13E+47 mass=  -0.429E-27a.u.
   SCALEE = 1.0000    scale energy and forces
   NPACO  =    256;   APACO  = 10.0  distance and # of slots for P.C.
   PSTRESS=    0.0 pullay stress

  Mass of Ions in am
   POMASS = 208.98
  Ionic Valenz
   ZVAL   =   5.00
  Atomic Wigner-Seitz radii
  virtual crystal weights
   VCA    =   1.00
   NELECT =      10.0000    total number of electrons
   NUPDOWN=      -1.0000    fix difference up-down

 DOS related values:
   EMIN   =  10.00;   EMAX   =-10.00  energy-range for DOS
   EFERMI =   0.00;   METHOD = LEGACY
   ISMEAR =     0;   SIGMA  =   0.01  broadening in eV -4-tet -1-fermi 0-gaus

 Electronic relaxation 2 (details)
   IALGO  =     38    algorithm
   LDIAG  =      T    sub-space diagonalisation (order eigenvalues)
   LSUBROT=      F    optimize rotation matrix (better conditioning)
   TURBO    =      0    0=normal 1=particle mesh
   IRESTART =      0    0=no restart 2=restart with 2 vectors
   NREBOOT  =      0    no. of reboots
   NMIN     =      0    reboot dimension
   EREF     =   0.00    reference energy to select bands
   IMIX   =      4    mixing-type and parameters
     AMIX     =   0.10;   BMIX     =  0.00
     AMIX_MAG =   0.40;   BMIX_MAG =  0.00
[...]
 Variant of blocked Davidson
 Davidson routine will perform the subspace rotation
 perform sub-space diagonalisation
    after iterative eigenvector-optimisation
 modified Broyden-mixing scheme, WC =      100.0
 initial mixing is a Kerker type mixing with AMIX =  0.1000 and BMIX =      0.0001
 Hartree-type preconditioning will be used
 using additional bands            7
 reciprocal scheme for non local part
 use partial core corrections
 calculate Harris-corrections to forces
   (improved forces if not selfconsistent)
 use gradient corrections
 use of overlap-Matrix (Vanderbilt PP)
 Gauss-broadening in eV      SIGMA  =   0.01

  energy-cutoff  :      293.06
  volume of cell :      260.08
      direct lattice vectors                 reciprocal lattice vectors
     4.332429384  0.000000000  0.000000000     0.230817380  0.133262477  0.000000000
    -2.166214692  3.751993907  0.000000000     0.000000000  0.266524953  0.000000000
     0.000000000  0.000000000 16.000000000     0.000000000  0.000000000  0.062500000

[...]

 k-points in units of 2pi/SCALE and weight: Fully automatic mesh
   0.00000000  0.00000000  0.00000000       0.003
   0.02098340  0.01211477  0.00000000       0.017
   0.04196680  0.02422954  0.00000000       0.017
   0.06295019  0.03634431  0.00000000       0.017
   0.08393359  0.04845908  0.00000000       0.017
   0.10491699  0.06057385  0.00000000       0.017
   0.02098340  0.03634431  0.00000000       0.017
   0.04196680  0.04845908  0.00000000       0.033
   0.06295019  0.06057385  0.00000000       0.033
   0.08393359  0.07268862  0.00000000       0.033
   0.10491699  0.08480339  0.00000000       0.017
   0.04196680  0.07268862  0.00000000       0.017
   0.06295019  0.08480339  0.00000000       0.033
   0.08393359  0.09691816  0.00000000       0.033
   0.06295019  0.10903294  0.00000000       0.017
   0.08393359  0.12114771  0.00000000       0.017
   0.00000000  0.00000000  0.02083333       0.006
   0.02098340  0.01211477  0.02083333       0.017
   0.00000000  0.02422954  0.02083333       0.017
   0.04196680  0.02422954  0.02083333       0.017
   0.00000000  0.04845908  0.02083333       0.017
   0.06295019  0.03634431  0.02083333       0.017
   0.00000000  0.07268862  0.02083333       0.017
   0.08393359  0.04845908  0.02083333       0.017
   0.00000000  0.09691816  0.02083333       0.017
   0.10491699  0.06057385  0.02083333       0.017
   0.00000000  0.12114771  0.02083333       0.017
   0.02098340  0.03634431  0.02083333       0.033
   0.04196680  0.04845908  0.02083333       0.033
  -0.02098340  0.06057385  0.02083333       0.033
   0.06295019  0.06057385  0.02083333       0.033
  -0.02098340  0.08480339  0.02083333       0.033
   0.08393359  0.07268862  0.02083333       0.033
  -0.02098340  0.10903294  0.02083333       0.033
   0.10491699  0.08480339  0.02083333       0.033
   0.04196680  0.07268862  0.02083333       0.033
   0.06295019  0.08480339  0.02083333       0.033
  -0.04196680  0.09691816  0.02083333       0.033
   0.08393359  0.09691816  0.02083333       0.033
  -0.04196680 -0.14537725  0.02083333       0.033
   0.06295019  0.10903294  0.02083333       0.033
   0.08393359  0.12114771  0.02083333       0.033

 k-points in reciprocal lattice and weights: Fully automatic mesh
   0.00000000  0.00000000  0.00000000       0.003
   0.09090909 -0.00000000  0.00000000       0.017
   0.18181818  0.00000000  0.00000000       0.017
   0.27272727  0.00000000  0.00000000       0.017
   0.36363636 -0.00000000  0.00000000       0.017
   0.45454545 -0.00000000  0.00000000       0.017
   0.09090909  0.09090909  0.00000000       0.017
   0.18181818  0.09090909  0.00000000       0.033
   0.27272727  0.09090909  0.00000000       0.033
   0.36363636  0.09090909  0.00000000       0.033
   0.45454545  0.09090909  0.00000000       0.017
   0.18181818  0.18181818  0.00000000       0.017
   0.27272727  0.18181818  0.00000000       0.033
   0.36363636  0.18181818  0.00000000       0.033
   0.27272727  0.27272727  0.00000000       0.017
   0.36363636  0.27272727  0.00000000       0.017
   0.00000000  0.00000000  0.33333333       0.006
   0.09090909 -0.00000000  0.33333333       0.017
   0.00000000  0.09090909  0.33333333       0.017
   0.18181818  0.00000000  0.33333333       0.017
   0.00000000  0.18181818  0.33333333       0.017
   0.27272727  0.00000000  0.33333333       0.017
   0.00000000  0.27272727  0.33333333       0.017
   0.36363636 -0.00000000  0.33333333       0.017
   0.00000000  0.36363636  0.33333333       0.017
   0.45454545 -0.00000000  0.33333333       0.017
   0.00000000  0.45454545  0.33333333       0.017
   0.09090909  0.09090909  0.33333333       0.033
   0.18181818  0.09090909  0.33333333       0.033
  -0.09090909  0.27272727  0.33333333       0.033
   0.27272727  0.09090909  0.33333333       0.033
  -0.09090909  0.36363636  0.33333333       0.033
   0.36363636  0.09090909  0.33333333       0.033
  -0.09090909  0.45454545  0.33333333       0.033
   0.45454545  0.09090909  0.33333333       0.033
   0.18181818  0.18181818  0.33333333       0.033
   0.27272727  0.18181818  0.33333333       0.033
  -0.18181818  0.45454545  0.33333333       0.033
   0.36363636  0.18181818  0.33333333       0.033
  -0.18181818 -0.45454545  0.33333333       0.033
   0.27272727  0.27272727  0.33333333       0.033
   0.36363636  0.27272727  0.33333333       0.033

 position of ions in fractional coordinates (direct lattice)
   0.66666667  0.33333333  0.44570588
   0.33333333  0.66666667  0.55429412

 position of ions in cartesian coordinates  (Angst):
   2.16621469  1.25066464  7.13129414
   0.00000000  2.50132927  8.86870586

 k-point   1 :   0.0000 0.0000 0.0000  plane waves:    2925
 k-point   2 :   0.0909-0.0000 0.0000  plane waves:    2933
 k-point   3 :   0.1818 0.0000 0.0000  plane waves:    2945
 k-point   4 :   0.2727 0.0000 0.0000  plane waves:    2958
 k-point   5 :   0.3636-0.0000 0.0000  plane waves:    2976
 k-point   6 :   0.4545-0.0000 0.0000  plane waves:    2968
 k-point   7 :   0.0909 0.0909 0.0000  plane waves:    2938
 k-point   8 :   0.1818 0.0909 0.0000  plane waves:    2953
 k-point   9 :   0.2727 0.0909 0.0000  plane waves:    2954
 k-point  10 :   0.3636 0.0909 0.0000  plane waves:    2979
 k-point  11 :   0.4545 0.0909 0.0000  plane waves:    2976
 k-point  12 :   0.1818 0.1818 0.0000  plane waves:    2964
 k-point  13 :   0.2727 0.1818 0.0000  plane waves:    2972
 k-point  14 :   0.3636 0.1818 0.0000  plane waves:    2974
 k-point  15 :   0.2727 0.2727 0.0000  plane waves:    2982
 k-point  16 :   0.3636 0.2727 0.0000  plane waves:    3000
 k-point  17 :   0.0000 0.0000 0.3333  plane waves:    2919
 k-point  18 :   0.0909-0.0000 0.3333  plane waves:    2932
 k-point  19 :   0.0000 0.0909 0.3333  plane waves:    2932
 k-point  20 :   0.1818 0.0000 0.3333  plane waves:    2953
 k-point  21 :   0.0000 0.1818 0.3333  plane waves:    2953
 k-point  22 :   0.2727 0.0000 0.3333  plane waves:    2953
 k-point  23 :   0.0000 0.2727 0.3333  plane waves:    2953
 k-point  24 :   0.3636-0.0000 0.3333  plane waves:    2955
 k-point  25 :   0.0000 0.3636 0.3333  plane waves:    2955
 k-point  26 :   0.4545-0.0000 0.3333  plane waves:    2962
 k-point  27 :   0.0000 0.4545 0.3333  plane waves:    2962
 k-point  28 :   0.0909 0.0909 0.3333  plane waves:    2948
 k-point  29 :   0.1818 0.0909 0.3333  plane waves:    2954
 k-point  30 :  -0.0909 0.2727 0.3333  plane waves:    2954
 k-point  31 :   0.2727 0.0909 0.3333  plane waves:    2955
 k-point  32 :  -0.0909 0.3636 0.3333  plane waves:    2955
 k-point  33 :   0.3636 0.0909 0.3333  plane waves:    2962
 k-point  34 :  -0.0909 0.4545 0.3333  plane waves:    2962
 k-point  35 :   0.4545 0.0909 0.3333  plane waves:    2965
 k-point  36 :   0.1818 0.1818 0.3333  plane waves:    2955
 k-point  37 :   0.2727 0.1818 0.3333  plane waves:    2968
 k-point  38 :  -0.1818 0.4545 0.3333  plane waves:    2968
 k-point  39 :   0.3636 0.1818 0.3333  plane waves:    2982
 k-point  40 :  -0.1818-0.4545 0.3333  plane waves:    2982
 k-point  41 :   0.2727 0.2727 0.3333  plane waves:    2983
 k-point  42 :   0.3636 0.2727 0.3333  plane waves:    2998

 maximum and minimum number of plane-waves per node :       758      723

 maximum number of plane-waves:      3000
 maximum index in each direction:
   IXMAX=    6   IYMAX=    6   IZMAX=   22
   IXMIN=   -6   IYMIN=   -6   IZMIN=  -22

 parallel 3D FFT for wavefunctions:
    minimum data exchange during FFTs selected (reduces bandwidth)
 parallel 3D FFT for charge:
    minimum data exchange during FFTs selected (reduces bandwidth)

 Broyden mixing: mesh for mixing (old mesh)
   NGX = 13   NGY = 13   NGZ = 45
  (NGX  = 48   NGY  = 48   NGZ  =180)
  gives a total of   7605 points

 initial charge density was supplied:
 charge density of overlapping atoms calculated
 number of electron      10.0000000 magnetization
 keeping initial charge density in first step

 Maximum index for augmentation-charges         7410 (set IRDMAX)

 First call to EWALD:  gamma=   0.278
 Maximum number of real-space cells 4x 4x 1
 Maximum number of reciprocal cells 2x 2x 6

--------------------------------------- Ionic step        1  -------------------------------------------

--------------------------------------- Iteration      1(   1)  ---------------------------------------

 eigenvalue-minimisations  :  1016
 total energy-change (2. order) : 0.4946984E+02  (-0.2019876E+03)
 number of electron      10.0000000 magnetization
 augmentation part       10.0000000 magnetization

 Free energy of the ion-electron system (eV)
  alpha Z        PSCENC =        11.30404040
  Ewald energy   TEWEN  =       164.36876020
  -Hartree energ DENC   =      -413.41641804
  -exchange      EXHF   =         0.00000000
  -V(xc)+E(xc)   XCENC  =      -220.85502346
  PAW double counting   =       450.63347180     -216.32616136
  entropy T*S    EENTRO =        -0.00000000
  eigenvalues    EBANDS =       -27.86289816
  atomic energy  EATOM  =       301.62406648
  Solvation  Ediel_sol  =         0.00000000
  free energy    TOTEN  =        49.46983786 eV

  energy without entropy =       49.46983786  energy(sigma->0) =       49.46983786

[...]

 eigenvalue-minimisations  :  1448
 total energy-change (2. order) :-0.5239539E+02  (-0.5006039E+02)
 number of electron      10.0000000 magnetization
 augmentation part       10.0000000 magnetization

[...]

 eigenvalue-minimisations  :   648
 total energy-change (2. order) :-0.3637979E-10  (-0.1275500E-11)
 number of electron      10.0000000 magnetization
 augmentation part       -2.5473934 magnetization

 Broyden mixing:
  rms(total) = 0.14536E+00    rms(broyden)= 0.14535E+00
  rms(prec ) = 0.17396E+00
  weight for this iteration     100.00

[...]

 eigenvalues of (default mixing * dielectric matrix)
  average eigenvalue GAMMA=   8.4163
  8.4163

[...]

 Broyden mixing:
  rms(total) = 0.19315E-03    rms(broyden)= 0.19313E-03
  rms(prec ) = 0.27876E-03
  weight for this iteration     100.00

 eigenvalues of (default mixing * dielectric matrix)
  average eigenvalue GAMMA=   4.5587
 10.7026  9.4963  7.2877  4.8686  1.1638  0.9704  0.9704  1.0101

[...]

--------------------------------------- Iteration      1(  21)  ---------------------------------------

 eigenvalue-minimisations  :  1276
 total energy-change (2. order) : 0.2985683E-06  (-0.2089785E-06)
 number of electron      10.0000000 magnetization
 augmentation part       -2.5245437 magnetization

 Free energy of the ion-electron system (eV)
  alpha Z        PSCENC =        11.30404040
  Ewald energy   TEWEN  =       164.36876020
  -Hartree energ DENC   =      -420.00488452
  -exchange      EXHF   =         0.00000000
  -V(xc)+E(xc)   XCENC  =      -220.47296815
  PAW double counting   =       496.35607043     -262.24197529
  entropy T*S    EENTRO =        -0.00000000
  eigenvalues    EBANDS =       -78.47365423
  atomic energy  EATOM  =       301.62406648
  Solvation  Ediel_sol  =         0.00000000
  free energy    TOTEN  =        -7.54054466 eV

  energy without entropy =       -7.54054466  energy(sigma->0) =       -7.54054466

 average (electrostatic) potential at core
  the test charge radii are     1.3154
  (the norm of the test charge is              1.0000)
       1 -37.7167       2 -37.7167

 E-fermi :  -2.6396     XC(G=0):  -3.3908     alpha+bet : -1.6732

 Fermi energy:        -2.6395546581

 k-point     1 :       0.0000    0.0000    0.0000
  band No.  band energies     occupation
      1     -15.0307      2.00000
      2     -11.1231      2.00000
      3      -3.4868      2.00000
      4      -2.6829      2.00000
      5      -2.6829      2.00000
      6      -2.1339      0.00000
      7      -0.1322      0.00000
      8      -0.1322      0.00000
      9       1.0266      0.00000
     10       1.2155      0.00000
     11       2.2699      0.00000
     12       3.3966      0.00000

[...]

 k-point    42 :       0.3636    0.2727    0.3333
  band No.  band energies     occupation
      1     -13.0728      2.00000
      2     -12.6463      2.00000
      3      -5.8364      2.00000
      4      -4.8111      2.00000
      5      -4.5192      2.00000
      6      -1.2598      0.00000
      7       0.2041      0.00000
      8       0.3250      0.00000
      9       3.3093      0.00000
     10       3.5816      0.00000
     11       3.9450      0.00000
     12       4.1109      0.00000

 soft charge-density along one line, spin component           1
         0         1         2         3         4         5         6         7         8         9
 total charge-density along one line

------------------------ aborting loop because EDIFF is reached ----------------------------------------

 total charge

# of ion       s       p       d       f       tot
    1        1.723   1.860   0.064   0.014   3.660
    2        1.723   1.860   0.064   0.014   3.660
tot          3.445   3.719   0.128   0.029   7.321

  FORCE on cell =-STRESS in cart. coord.  units (eV):
  Direction    XX          YY          ZZ          XY          YZ          ZX
  Alpha Z    11.30404    11.30404    11.30404
  Ewald     361.84495   361.84495  -559.32115    -0.00000     0.00000    -0.00000
  Hartree   407.80763   407.80763  -395.61034    -0.00000    -0.00000    -0.00000
  E(xc)     -45.42917   -45.42917   -45.81243    -0.00000    -0.00000    -0.00000
  Local    -830.31183  -830.31183   892.84031     0.00000    -0.00000     0.00000
  n-local    37.39488    37.40762    37.67829     0.00889     0.21602    -0.30943
  augment   -13.71030   -13.71030   -13.91141     0.00000    -0.00000     0.00000
  Kinetic    70.44682    71.73987    72.81361    -0.32870     0.13597    -0.85414
  Fock        0.00000     0.00000     0.00000     0.00000     0.00000     0.00000
  Total      -0.00008    -0.00008    -0.01908     0.00000    -0.00000     0.00000
  in kB      -0.00051    -0.00051    -0.11752     0.00000    -0.00000     0.00000

 VOLUME and BASIS-vectors are now :
  energy-cutoff  :      293.06
  volume of cell :      260.08
      direct lattice vectors                 reciprocal lattice vectors
     4.332429384  0.000000000  0.000000000     0.230817380  0.133262477  0.000000000
    -2.166214692  3.751993907  0.000000000     0.000000000  0.266524953  0.000000000
     0.000000000  0.000000000 16.000000000     0.000000000  0.000000000  0.062500000

  length of vectors
     4.332429384  4.332429384 16.000000000     0.266524953  0.266524953  0.062500000

 FORCES acting on ions
    electron-ion (+dipol)            ewald-force                    non-local-force                 convergence-correction
   0.716E-07 -.198E-07 0.879E+02   0.170E-11 -.950E-12 -.901E+02   -.260E-17 0.130E-17 0.221E+01   0.191E-10 -.109E-10 0.497E-03
   -.716E-07 0.198E-07 -.879E+02   -.169E-11 0.949E-12 0.901E+02   0.347E-17 -.130E-17 -.221E+01   -.191E-10 0.109E-10 -.497E-03
   -.488E-13 -.272E-13 -.399E-11   0.218E-14 -.610E-15 0.000E+00   0.867E-18 0.000E+00 0.000E+00   -.554E-15 -.115E-14 -.780E-14

 POSITION                                       TOTAL-FORCE (eV/Angst)
      2.16621      1.25066      7.13129         0.000000     -0.000000      0.007650
      0.00000      2.50133      8.86871         0.000000      0.000000     -0.007650
    total drift:                               -0.000000     -0.000000     -0.000000

  FREE ENERGIE OF THE ION-ELECTRON SYSTEM (eV)
  free  energy   TOTEN  =        -7.54054466 eV

  energy  without entropy=       -7.54054466  energy(sigma->0) =       -7.54054466

 reached required accuracy - stopping structural energy minimisation

 total charge

# of ion       s       p       d       f       tot
    1        1.723   1.860   0.064   0.014   3.660
    2        1.723   1.860   0.064   0.014   3.660
tot          3.445   3.719   0.128   0.029   7.321