 vasp.6.4.2 20Jul23 (build Nov 14 2023 12:59:38) complex

 executed on             LinuxIFC date 2023.12.16  19:20:24

 INCAR:
   ENCUT = 417.4040
   ALGO = Normal
   NELM = 200
   NELMIN = 6
   NELMDL = -12
   EDIFF = 1.0E-6
   AMIX = 0.1
   BMIX = 0.0001
   PREC = Accurate
   IVDW = 0
   ISPIN = 1
   ADDGRID = .TRUE.
   LASPH = .TRUE.
   NSW = 30
   EDIFFG = -0.010
   IBRION = 2
   ISIF = 3
   POTIM = 0.5
   STRESSTYPE = 2
   ISMEAR = 0
   SIGMA = 0.01
   LORBIT = 10
   NEDOS = 6001
   NWRITE = 1
   LWAVE = .FALSE.
   LCHARG = .FALSE.
   NCORE = 4
   LPLANE = .TRUE.

 POTCAR:    PAW_PBE As_GW 20Mar2012
 POTCAR:    PAW_PBE As_GW 20Mar2012

  PAW_PBE As_GW 20Mar2012               :

 POSCAR: pnictogen honeycomb monolayer
  positions in direct lattice
  velocities in cartesian coordinates
 exchange correlation table for  LEXCH =        8
   RHO(1)=    0.500       N(1)  =     2000
   RHO(2)=  100.500       N(2)  =     4000

 ion  position               nearest neighbor table
   1  0.667  0.333  0.456-   2 2.51   2 2.51   2 2.51
   2  0.333  0.667  0.544-   1 2.51   1 2.51   1 2.51

  LATTYP: Found a hexagonal cell.
 ALAT       =     3.6068925390
 C/A-ratio  =     4.4359513978

  Lattice vectors:

 A1 = (   3.6068925390,   0.0000000000,   0.0000000000)
 A2 = (  -1.8034462695,   3.1236605675,   0.0000000000)
 A3 = (   0.0000000000,   0.0000000000,  16.0000000000)

Analysis of symmetry for initial positions (statically):
 Subroutine PRICEL returns:
 Original cell was already a primitive cell.

 Routine SETGRP: Setting up the symmetry group for a
 hexagonal supercell.

 Subroutine GETGRP returns: Found 12 space group operations
 (whereof 12 operations were pure point group operations)
 out of a pool of 24 trial point group operations.

The static configuration has the point symmetry D_3d.

Analysis of symmetry for dynamics (positions and initial velocities):
 Subroutine PRICEL returns:
 Original cell was already a primitive cell.

 Routine SETGRP: Setting up the symmetry group for a
 hexagonal supercell.

 Subroutine GETGRP returns: Found 12 space group operations
 (whereof 12 operations were pure point group operations)
 out of a pool of 24 trial point group operations.

The dynamic configuration has the point symmetry D_3d.

 Subroutine INISYM returns: Found 12 space group operations
 (whereof 12 operations are pure point group operations),
 and found     1 'primitive' translations

                                     Primitive cell

  volume of cell :     180.2673

  direct lattice vectors                    reciprocal lattice vectors
     3.606892539  0.000000000  0.000000000     0.277246962  0.160068608  0.000000000
    -1.803446269  3.123660567  0.000000000     0.000000000  0.320137217  0.000000000
     0.000000000  0.000000000 16.000000000     0.000000000  0.000000000  0.062500000

  length of vectors
     3.606892539  3.606892539 16.000000000     0.320137217  0.320137217  0.062500000

  position of ions in fractional coordinates (direct lattice)
     0.666666667  0.333333333  0.456343136
     0.333333333  0.666666667  0.543656864

  ion indices of the primitive-cell ions
   primitive index   ion index
                 1           1
                 2           2

 KPOINTS: Fully automatic mesh

Automatic generation of k-mesh.
 Grid dimensions derived from RKLEN:
 generate k-points for:   13   13    3

 Generating k-lattice:

  Cartesian coordinates                     Fractional coordinates (reciprocal lattice)
     0.021326689  0.012312970  0.000000000     0.076923077  0.000000000  0.000000000
     0.000000000  0.024625940  0.000000000     0.000000000  0.076923077  0.000000000
     0.000000000  0.000000000  0.020833333     0.000000000  0.000000000  0.333333333

  Length of vectors
     0.024625940  0.024625940  0.020833333

  Shift w.r.t. Gamma in fractional coordinates (k-lattice)
     0.000000000  0.000000000  0.000000000

 Subroutine IBZKPT returns following result:

 Found     56 irreducible k-points:

 Following reciprocal coordinates:
            Coordinates               Weight
  0.000000  0.000000  0.000000      1.000000
  0.076923  0.000000  0.000000      6.000000
  0.153846  0.000000  0.000000      6.000000
  0.230769 -0.000000  0.000000      6.000000
  0.307692  0.000000  0.000000      6.000000
  0.384615  0.000000  0.000000      6.000000
  0.461538 -0.000000  0.000000      6.000000
  0.076923  0.076923  0.000000      6.000000
  0.153846  0.076923  0.000000     12.000000
  0.230769  0.076923  0.000000     12.000000
  0.307692  0.076923  0.000000     12.000000
  0.384615  0.076923  0.000000     12.000000
  0.461538  0.076923  0.000000      6.000000
  0.153846  0.153846  0.000000      6.000000
  0.230769  0.153846  0.000000     12.000000
  0.307692  0.153846  0.000000     12.000000
  0.384615  0.153846  0.000000     12.000000
  0.230769  0.230769  0.000000      6.000000
  0.307692  0.230769  0.000000     12.000000
  0.384615  0.230769  0.000000      6.000000
  0.307692  0.307692  0.000000      6.000000
  0.000000  0.000000  0.333333      2.000000
  0.076923  0.000000  0.333333      6.000000
  0.000000  0.076923  0.333333      6.000000
  0.153846  0.000000  0.333333      6.000000
  0.000000  0.153846  0.333333      6.000000
  0.230769 -0.000000  0.333333      6.000000
  0.000000  0.230769  0.333333      6.000000
  0.307692  0.000000  0.333333      6.000000
  0.000000  0.307692  0.333333      6.000000
  0.384615  0.000000  0.333333      6.000000
  0.000000  0.384615  0.333333      6.000000
  0.461538 -0.000000  0.333333      6.000000
  0.000000  0.461538  0.333333      6.000000
  0.076923  0.076923  0.333333     12.000000
  0.153846  0.076923  0.333333     12.000000
 -0.076923  0.230769  0.333333     12.000000
  0.230769  0.076923  0.333333     12.000000
 -0.076923  0.307692  0.333333     12.000000
  0.307692  0.076923  0.333333     12.000000
 -0.076923  0.384615  0.333333     12.000000
  0.384615  0.076923  0.333333     12.000000
 -0.076923  0.461538  0.333333     12.000000
  0.461538  0.076923  0.333333     12.000000
  0.153846  0.153846  0.333333     12.000000
  0.230769  0.153846  0.333333     12.000000
 -0.153846  0.384615  0.333333     12.000000
  0.307692  0.153846  0.333333     12.000000
 -0.153846  0.461538  0.333333     12.000000
  0.384615  0.153846  0.333333     12.000000
 -0.153846 -0.461538  0.333333     12.000000
  0.230769  0.230769  0.333333     12.000000
  0.307692  0.230769  0.333333     12.000000
 -0.230769 -0.461538  0.333333     12.000000
  0.384615  0.230769  0.333333     12.000000
  0.307692  0.307692  0.333333     12.000000

 Following cartesian coordinates:
            Coordinates               Weight
  0.000000  0.000000  0.000000      1.000000
  0.021327  0.012313  0.000000      6.000000
  0.042653  0.024626  0.000000      6.000000
  0.063980  0.036939  0.000000      6.000000
  0.085307  0.049252  0.000000      6.000000
  0.106633  0.061565  0.000000      6.000000
  0.127960  0.073878  0.000000      6.000000
  0.021327  0.036939  0.000000      6.000000
  0.042653  0.049252  0.000000     12.000000
  0.063980  0.061565  0.000000     12.000000
  0.085307  0.073878  0.000000     12.000000
  0.106633  0.086191  0.000000     12.000000
  0.127960  0.098504  0.000000      6.000000
  0.042653  0.073878  0.000000      6.000000
  0.063980  0.086191  0.000000     12.000000
  0.085307  0.098504  0.000000     12.000000
  0.106633  0.110817  0.000000     12.000000
  0.063980  0.110817  0.000000      6.000000
  0.085307  0.123130  0.000000     12.000000
  0.106633  0.135443  0.000000      6.000000
  0.085307  0.147756  0.000000      6.000000
  0.000000  0.000000  0.020833      2.000000
  0.021327  0.012313  0.020833      6.000000
  0.000000  0.024626  0.020833      6.000000
  0.042653  0.024626  0.020833      6.000000
  0.000000  0.049252  0.020833      6.000000
  0.063980  0.036939  0.020833      6.000000
  0.000000  0.073878  0.020833      6.000000
  0.085307  0.049252  0.020833      6.000000
  0.000000  0.098504  0.020833      6.000000
  0.106633  0.061565  0.020833      6.000000
  0.000000  0.123130  0.020833      6.000000
  0.127960  0.073878  0.020833      6.000000
  0.000000  0.147756  0.020833      6.000000
  0.021327  0.036939  0.020833     12.000000
  0.042653  0.049252  0.020833     12.000000
 -0.021327  0.061565  0.020833     12.000000
  0.063980  0.061565  0.020833     12.000000
 -0.021327  0.086191  0.020833     12.000000
  0.085307  0.073878  0.020833     12.000000
 -0.021327  0.110817  0.020833     12.000000
  0.106633  0.086191  0.020833     12.000000
 -0.021327  0.135443  0.020833     12.000000
  0.127960  0.098504  0.020833     12.000000
  0.042653  0.073878  0.020833     12.000000
  0.063980  0.086191  0.020833     12.000000
 -0.042653  0.098504  0.020833     12.000000
  0.085307  0.098504  0.020833     12.000000
 -0.042653  0.123130  0.020833     12.000000
  0.106633  0.110817  0.020833     12.000000
 -0.042653 -0.172382  0.020833     12.000000
  0.063980  0.110817  0.020833     12.000000
  0.085307  0.123130  0.020833     12.000000
 -0.063980 -0.184695  0.020833     12.000000
  0.106633  0.135443  0.020833     12.000000
  0.085307  0.147756  0.020833     12.000000

 SYSTEM =  unknown system
 POSCAR =  pnictogen honeycomb monolayer

 Startparameter for this run:
   NWRITE =      1    write-flag & timer
   PREC   = accura    normal or accurate (medium, high low for compatibility)
   ISTART =      0    job   : 0-new  1-cont  2-samecut
   ICHARG =      2    charge: 1-file 2-atom 10-const
   ISPIN  =      1    spin polarized calculation?
   LNONCOLLINEAR =      F non collinear calculations
   LSORBIT =      F    spin-orbit coupling
   INIWAV =      1    electr: 0-lowe 1-rand  2-diag
   LASPH  =      T    aspherical Exc in radial PAW
 Electronic Relaxation 1
   ENCUT  =  417.4 eV  30.68 Ry    5.54 a.u.   6.01  6.01 26.65*2*pi/ulx,y,z
   ENINI  =  417.4     initial cutoff
   ENAUG  =  462.8 eV  augmentation charge cutoff
   NELM   =    200;   NELMIN=  6; NELMDL=-12     # of ELM steps
   EDIFF  = 0.1E-05   stopping-criterion for ELM
   LREAL  =      F    real-space projection
   NLSPLINE    = F    spline interpolate recip. space projectors
   LCOMPAT=      F    compatible to vasp.4.4
   GGA_COMPAT  = T    GGA compatible to vasp.4.4-vasp.4.6
   LMAXPAW     = -100 max onsite density
   LMAXMIX     =    2 max onsite mixed and CHGCAR
   VOSKOWN=      0    Vosko Wilk Nusair interpolation
   ROPT   =    0.00000
 Ionic relaxation
   EDIFFG = -.1E-01   stopping-criterion for IOM
   NSW    =     30    number of steps for IOM
   NBLOCK =      1;   KBLOCK =     30    inner block; outer block
   IBRION =      2    ionic relax: 0-MD 1-quasi-New 2-CG
   NFREE  =      1    steps in history (QN), initial steepest desc. (CG)
   ISIF   =      3    stress and relaxation
   IWAVPR =     11    prediction:  0-non 1-charg 2-wave 3-comb
   ISYM   =      2    0-nonsym 1-usesym 2-fastsym
   LCORR  =      T    Harris-Foulkes like correction to forces

   POTIM  = 0.5000    time-step for ionic-motion
   TEIN   =    0.0    initial temperature
   TEBEG  =    0.0;   TEEND  =   0.0 temperature during run
   SMASS  =  -3.00    Nose mass-parameter (am)
[...]
   0.00000000  0.00000000  0.02083333       0.004
   0.02132669  0.01231297  0.02083333       0.012
   0.00000000  0.02462594  0.02083333       0.012
   0.04265338  0.02462594  0.02083333       0.012
   0.00000000  0.04925188  0.02083333       0.012
   0.06398007  0.03693891  0.02083333       0.012
   0.00000000  0.07387782  0.02083333       0.012
   0.08530676  0.04925188  0.02083333       0.012
   0.00000000  0.09850376  0.02083333       0.012
   0.10663345  0.06156485  0.02083333       0.012
   0.00000000  0.12312970  0.02083333       0.012
   0.12796014  0.07387782  0.02083333       0.012
   0.00000000  0.14775564  0.02083333       0.012
   0.02132669  0.03693891  0.02083333       0.024
   0.04265338  0.04925188  0.02083333       0.024
  -0.02132669  0.06156485  0.02083333       0.024
   0.06398007  0.06156485  0.02083333       0.024
  -0.02132669  0.08619079  0.02083333       0.024
   0.08530676  0.07387782  0.02083333       0.024
  -0.02132669  0.11081673  0.02083333       0.024
   0.10663345  0.08619079  0.02083333       0.024
  -0.02132669  0.13544267  0.02083333       0.024
   0.12796014  0.09850376  0.02083333       0.024
   0.04265338  0.07387782  0.02083333       0.024
   0.06398007  0.08619079  0.02083333       0.024
  -0.04265338  0.09850376  0.02083333       0.024
   0.08530676  0.09850376  0.02083333       0.024
  -0.04265338  0.12312970  0.02083333       0.024
   0.10663345  0.11081673  0.02083333       0.024
  -0.04265338 -0.17238158  0.02083333       0.024
   0.06398007  0.11081673  0.02083333       0.024
   0.08530676  0.12312970  0.02083333       0.024
  -0.06398007 -0.18469455  0.02083333       0.024
   0.10663345  0.13544267  0.02083333       0.024
   0.08530676  0.14775564  0.02083333       0.024

 k-points in reciprocal lattice and weights: Fully automatic mesh
   0.00000000  0.00000000  0.00000000       0.002
   0.07692308  0.00000000  0.00000000       0.012
   0.15384615  0.00000000  0.00000000       0.012
   0.23076923 -0.00000000  0.00000000       0.012
   0.30769231  0.00000000  0.00000000       0.012
   0.38461538  0.00000000  0.00000000       0.012
   0.46153846 -0.00000000  0.00000000       0.012
   0.07692308  0.07692308  0.00000000       0.012
   0.15384615  0.07692308  0.00000000       0.024
   0.23076923  0.07692308  0.00000000       0.024
   0.30769231  0.07692308  0.00000000       0.024
   0.38461538  0.07692308  0.00000000       0.024
   0.46153846  0.07692308  0.00000000       0.012
   0.15384615  0.15384615  0.00000000       0.012
   0.23076923  0.15384615  0.00000000       0.024
   0.30769231  0.15384615  0.00000000       0.024
   0.38461538  0.15384615  0.00000000       0.024
   0.23076923  0.23076923  0.00000000       0.012
   0.30769231  0.23076923  0.00000000       0.024
   0.38461538  0.23076923  0.00000000       0.012
   0.30769231  0.30769231  0.00000000       0.012
   0.00000000  0.00000000  0.33333333       0.004
   0.07692308  0.00000000  0.33333333       0.012
   0.00000000  0.07692308  0.33333333       0.012
   0.15384615  0.00000000  0.33333333       0.012
   0.00000000  0.15384615  0.33333333       0.012
   0.23076923 -0.00000000  0.33333333       0.012
   0.00000000  0.23076923  0.33333333       0.012
   0.30769231  0.00000000  0.33333333       0.012
   0.00000000  0.30769231  0.33333333       0.012
   0.38461538  0.00000000  0.33333333       0.012
   0.00000000  0.38461538  0.33333333       0.012
   0.46153846 -0.00000000  0.33333333       0.012
   0.00000000  0.46153846  0.33333333       0.012
   0.07692308  0.07692308  0.33333333       0.024
   0.15384615  0.07692308  0.33333333       0.024
  -0.07692308  0.23076923  0.33333333       0.024
   0.23076923  0.07692308  0.33333333       0.024
  -0.07692308  0.30769231  0.33333333       0.024
   0.30769231  0.07692308  0.33333333       0.024
  -0.07692308  0.38461538  0.33333333       0.024
   0.38461538  0.07692308  0.33333333       0.024
  -0.07692308  0.46153846  0.33333333       0.024
   0.46153846  0.07692308  0.33333333       0.024
   0.15384615  0.15384615  0.33333333       0.024
   0.23076923  0.15384615  0.33333333       0.024
  -0.15384615  0.38461538  0.33333333       0.024
   0.30769231  0.15384615  0.33333333       0.024
  -0.15384615  0.46153846  0.33333333       0.024
   0.38461538  0.15384615  0.33333333       0.024
  -0.15384615 -0.46153846  0.33333333       0.024
   0.23076923  0.23076923  0.33333333       0.024
   0.30769231  0.23076923  0.33333333       0.024
  -0.23076923 -0.46153846  0.33333333       0.024
   0.38461538  0.23076923  0.33333333       0.024
   0.30769231  0.30769231  0.33333333       0.024

 position of ions in fractional coordinates (direct lattice)
   0.66666667  0.33333333  0.45634314
   0.33333333  0.66666667  0.54365686

 position of ions in cartesian coordinates  (Angst):
   1.80344627  1.04122019  7.30149017
   0.00000000  2.08244038  8.69850983

 k-point   1 :   0.0000 0.0000 0.0000  plane waves:    3437
 k-point   2 :   0.0769 0.0000 0.0000  plane waves:    3449
 k-point   3 :   0.1538 0.0000 0.0000  plane waves:    3469
 k-point   4 :   0.2308-0.0000 0.0000  plane waves:    3472
 k-point   5 :   0.3077 0.0000 0.0000  plane waves:    3480
 k-point   6 :   0.3846 0.0000 0.0000  plane waves:    3476
 k-point   7 :   0.4615-0.0000 0.0000  plane waves:    3484
 k-point   8 :   0.0769 0.0769 0.0000  plane waves:    3468
 k-point   9 :   0.1538 0.0769 0.0000  plane waves:    3479
 k-point  10 :   0.2308 0.0769 0.0000  plane waves:    3488
 k-point  11 :   0.3077 0.0769 0.0000  plane waves:    3479
 k-point  12 :   0.3846 0.0769 0.0000  plane waves:    3503
 k-point  13 :   0.4615 0.0769 0.0000  plane waves:    3502
 k-point  14 :   0.1538 0.1538 0.0000  plane waves:    3484
 k-point  15 :   0.2308 0.1538 0.0000  plane waves:    3487
 k-point  16 :   0.3077 0.1538 0.0000  plane waves:    3494
 k-point  17 :   0.3846 0.1538 0.0000  plane waves:    3522
 k-point  18 :   0.2308 0.2308 0.0000  plane waves:    3502
 k-point  19 :   0.3077 0.2308 0.0000  plane waves:    3523
 k-point  20 :   0.3846 0.2308 0.0000  plane waves:    3532
 k-point  21 :   0.3077 0.3077 0.0000  plane waves:    3534
 k-point  22 :   0.0000 0.0000 0.3333  plane waves:    3431
 k-point  23 :   0.0769 0.0000 0.3333  plane waves:    3438
 k-point  24 :   0.0000 0.0769 0.3333  plane waves:    3438
 k-point  25 :   0.1538 0.0000 0.3333  plane waves:    3471
 k-point  26 :   0.0000 0.1538 0.3333  plane waves:    3471
 k-point  27 :   0.2308-0.0000 0.3333  plane waves:    3476
 k-point  28 :   0.0000 0.2308 0.3333  plane waves:    3476
 k-point  29 :   0.3077 0.0000 0.3333  plane waves:    3470
 k-point  30 :   0.0000 0.3077 0.3333  plane waves:    3470
 k-point  31 :   0.3846 0.0000 0.3333  plane waves:    3480
 k-point  32 :   0.0000 0.3846 0.3333  plane waves:    3480
 k-point  33 :   0.4615-0.0000 0.3333  plane waves:    3490
 k-point  34 :   0.0000 0.4615 0.3333  plane waves:    3490
 k-point  35 :   0.0769 0.0769 0.3333  plane waves:    3463
 k-point  36 :   0.1538 0.0769 0.3333  plane waves:    3471
 k-point  37 :  -0.0769 0.2308 0.3333  plane waves:    3471
 k-point  38 :   0.2308 0.0769 0.3333  plane waves:    3483
 k-point  39 :  -0.0769 0.3077 0.3333  plane waves:    3483
 k-point  40 :   0.3077 0.0769 0.3333  plane waves:    3480
 k-point  41 :  -0.0769 0.3846 0.3333  plane waves:    3480
 k-point  42 :   0.3846 0.0769 0.3333  plane waves:    3500
 k-point  43 :  -0.0769 0.4615 0.3333  plane waves:    3500
 k-point  44 :   0.4615 0.0769 0.3333  plane waves:    3503
 k-point  45 :   0.1538 0.1538 0.3333  plane waves:    3479
 k-point  46 :   0.2308 0.1538 0.3333  plane waves:    3492
 k-point  47 :  -0.1538 0.3846 0.3333  plane waves:    3492
 k-point  48 :   0.3077 0.1538 0.3333  plane waves:    3504
 k-point  49 :  -0.1538 0.4615 0.3333  plane waves:    3504
 k-point  50 :   0.3846 0.1538 0.3333  plane waves:    3513
 k-point  51 :  -0.1538-0.4615 0.3333  plane waves:    3513
 k-point  52 :   0.2308 0.2308 0.3333  plane waves:    3505
 k-point  53 :   0.3077 0.2308 0.3333  plane waves:    3512
 k-point  54 :  -0.2308-0.4615 0.3333  plane waves:    3512
 k-point  55 :   0.3846 0.2308 0.3333  plane waves:    3517
 k-point  56 :   0.3077 0.3077 0.3333  plane waves:    3525

 maximum and minimum number of plane-waves per node :       901      831

 maximum number of plane-waves:      3534
 maximum index in each direction:
   IXMAX=    6   IYMAX=    6   IZMAX=   26
   IXMIN=   -6   IYMIN=   -6   IZMIN=  -26

 parallel 3D FFT for wavefunctions:
    minimum data exchange during FFTs selected (reduces bandwidth)
 parallel 3D FFT for charge:
    minimum data exchange during FFTs selected (reduces bandwidth)

 Broyden mixing: mesh for mixing (old mesh)
   NGX = 13   NGY = 13   NGZ = 53
  (NGX  = 48   NGY  = 48   NGZ  =216)
  gives a total of   8957 points

 initial charge density was supplied:
 charge density of overlapping atoms calculated
 number of electron      10.0000000 magnetization
 keeping initial charge density in first step

 Maximum index for augmentation-charges         6617 (set IRDMAX)

 First call to EWALD:  gamma=   0.314
 Maximum number of real-space cells 5x 5x 1
 Maximum number of reciprocal cells 2x 2x 7

--------------------------------------- Ionic step        1  -------------------------------------------

--------------------------------------- Iteration      1(   1)  ---------------------------------------

 eigenvalue-minimisations  :  1344
 total energy-change (2. order) : 0.4834173E+02  (-0.2793997E+03)
 number of electron      10.0000000 magnetization
 augmentation part       10.0000000 magnetization

 Free energy of the ion-electron system (eV)
  alpha Z        PSCENC =         5.26383816
  Ewald energy   TEWEN  =       378.22030483
  -Hartree energ DENC   =      -664.27977220
  -exchange      EXHF   =         0.00000000
  -V(xc)+E(xc)   XCENC  =       -23.94414329
  PAW double counting   =       294.12882363     -251.25503797
  entropy T*S    EENTRO =        -0.00044495
  eigenvalues    EBANDS =       -30.16312600
  atomic energy  EATOM  =       340.37129062
  Solvation  Ediel_sol  =         0.00000000
  free energy    TOTEN  =        48.34173284 eV

  energy without entropy =       48.34217779  energy(sigma->0) =       48.34195532

[...]

 eigenvalue-minimisations  :  1976
 total energy-change (2. order) :-0.5242511E+02  (-0.4904871E+02)
 number of electron      10.0000000 magnetization
 augmentation part       10.0000000 magnetization

[...]

 Broyden mixing:
  rms(total) = 0.19282E+00    rms(broyden)= 0.19282E+00
  rms(prec ) = 0.21685E+00
  weight for this iteration     100.00

[...]

 eigenvalues of (default mixing * dielectric matrix)
  average eigenvalue GAMMA=   9.0610
  9.0610

[...]

 eigenvalue-minimisations  :  1896
 total energy-change (2. order) :-0.1450350E-03  (-0.1070332E-03)
 number of electron      10.0000000 magnetization
 augmentation part       -1.6283306 magnetization

[...]

 Broyden mixing:
  rms(total) = 0.64809E-03    rms(broyden)= 0.64807E-03
  rms(prec ) = 0.74892E-03
  weight for this iteration     100.00

 eigenvalues of (default mixing * dielectric matrix)
  average eigenvalue GAMMA=   4.4198
 10.1982  7.3495  4.8488  2.0968  0.9333  1.0923

[...]

--------------------------------------- Iteration      1(  19)  ---------------------------------------

 eigenvalue-minimisations  :  1704
 total energy-change (2. order) : 0.4710714E-06  (-0.9198220E-06)
 number of electron      10.0000000 magnetization
 augmentation part       -1.6284873 magnetization

 Free energy of the ion-electron system (eV)
  alpha Z        PSCENC =         5.26383816
  Ewald energy   TEWEN  =       378.22030483
  -Hartree energ DENC   =      -670.08548556
  -exchange      EXHF   =         0.00000000
  -V(xc)+E(xc)   XCENC  =       -23.49629865
  PAW double counting   =       331.11249480     -288.38420711
  entropy T*S    EENTRO =        -0.00000000
  eigenvalues    EBANDS =       -82.34453170
  atomic energy  EATOM  =       340.37129062
  Solvation  Ediel_sol  =         0.00000000
  free energy    TOTEN  =        -9.34259460 eV

  energy without entropy =       -9.34259460  energy(sigma->0) =       -9.34259460

 average (electrostatic) potential at core
  the test charge radii are     1.0621
  (the norm of the test charge is              1.0000)
       1 -57.2630       2 -57.2630

 E-fermi :  -2.9715     XC(G=0):  -3.2477     alpha+bet : -2.4472

 Fermi energy:        -2.9715245688

 k-point     1 :       0.0000    0.0000    0.0000
  band No.  band energies     occupation
      1     -16.4739      2.00000
      2     -10.1870      2.00000
      3      -3.5635      2.00000
      4      -3.0145      2.00000
      5      -3.0145      2.00000
      6      -1.0926      0.00000
      7       0.4759      0.00000
      8       0.4759      0.00000
      9       1.9033      0.00000
     10       1.9992      0.00000
     11       3.3826      0.00000
     12       4.3055      0.00000

[...]

 k-point    56 :       0.3077    0.3077    0.3333
  band No.  band energies     occupation
      1     -13.2986      2.00000
      2     -12.5970      2.00000
      3      -7.2925      2.00000
      4      -5.2698      2.00000
      5      -4.7267      2.00000
      6      -0.9379      0.00000
      7       1.2815      0.00000
      8       1.6956      0.00000
      9       5.1337      0.00000
     10       5.5344      0.00000
     11       5.6315      0.00000
     12       6.1015      0.00000

 soft charge-density along one line, spin component           1
         0         1         2         3         4         5         6         7         8         9
 total charge-density along one line

------------------------ aborting loop because EDIFF is reached ----------------------------------------

 total charge

# of ion       s       p       d       tot
    1        1.291   1.348   0.041   2.679
    2        1.291   1.348   0.041   2.679
tot          2.582   2.695   0.082   5.359

  FORCE on cell =-STRESS in cart. coord.  units (eV):
  Direction    XX          YY          ZZ          XY          YZ          ZX
  Alpha Z     5.26384     5.26384     5.26384
  Ewald     617.16201   617.16201  -856.10369    -0.00000     0.00000    -0.00000
  Hartree   656.18733   656.18733  -642.28024    -0.00000    -0.00000    -0.00000
  E(xc)     -36.99246   -36.99246   -37.41359     0.00000     0.00000    -0.00000
  Local   -1402.09193 -1402.09194  1363.65057    -0.00000    -0.00000     0.00000
  n-local    74.07134    74.07726    74.83197    -0.35752     0.34424    -0.51402
  augment    -2.79224    -2.79223    -3.19474     0.00001    -0.00000     0.00000
  Kinetic    88.04310    90.31574    95.23650     0.52538     0.25617    -1.19900
  Fock        0.00000     0.00000     0.00000     0.00000     0.00000     0.00000
  Total      -0.00973    -0.00973    -0.00938     0.00000     0.00000     0.00000
  in kB      -0.08647    -0.08647    -0.08335     0.00000     0.00000     0.00000

 VOLUME and BASIS-vectors are now :
  energy-cutoff  :      417.40
  volume of cell :      180.27
      direct lattice vectors                 reciprocal lattice vectors
     3.606892539  0.000000000  0.000000000     0.277246962  0.160068608  0.000000000
    -1.803446269  3.123660567  0.000000000     0.000000000  0.320137217  0.000000000
     0.000000000  0.000000000 16.000000000     0.000000000  0.000000000  0.062500000

  length of vectors
     3.606892539  3.606892539 16.000000000     0.320137217  0.320137217  0.062500000

 FORCES acting on ions
    electron-ion (+dipol)            ewald-force                    non-local-force                 convergence-correction
   0.577E-07 -.176E-07 0.130E+03   0.264E-11 -.149E-11 -.136E+03   0.173E-16 -.139E-16 0.588E+01   -.155E-08 0.897E-09 -.125E-02
   -.577E-07 0.176E-07 -.130E+03   -.264E-11 0.148E-11 0.136E+03   -.173E-16 0.139E-16 -.588E+01   0.155E-08 -.897E-09 0.125E-02
   -.733E-13 -.799E-13 -.591E-11   -.111E-14 -.253E-14 0.000E+00   0.000E+00 0.000E+00 0.000E+00   -.668E-15 -.196E-14 -.114E-13

 POSITION                                       TOTAL-FORCE (eV/Angst)
      1.80345      1.04122      7.30149         0.000000      0.000000      0.008368
      0.00000      2.08244      8.69851         0.000000      0.000000     -0.008368
    total drift:                               -0.000000     -0.000000     -0.000000

  FREE ENERGIE OF THE ION-ELECTRON SYSTEM (eV)
  free  energy   TOTEN  =        -9.34259460 eV

  energy  without entropy=       -9.34259460  energy(sigma->0) =       -9.34259460

 reached required accuracy - stopping structural energy minimisation

 total charge

# of ion       s       p       d       tot
    1        1.291   1.348   0.041   2.679
    2        1.291   1.348   0.041   2.679
tot          2.582   2.695   0.082   5.359