 vasp.6.4.2 20Jul23 (build Nov 14 2023 12:59:38) complex

 executed on             LinuxIFC date 2023.12.17  08:41:42

 INCAR:
   ENCUT = 234.789750
   ALGO = Normal
   NELM = 200
   NELMIN = 6
   NELMDL = -12
   EDIFF = 1.0E-6
   AMIX = 0.1
   BMIX = 0.0001
   NBANDS = 16
   PREC = Accurate
   IVDW = 0
   ISPIN = 1
   ADDGRID = .TRUE.
   LASPH = .TRUE.
   NSW = 0
   EDIFFG = -0.010
   IBRION = 2
   ISIF = -1
   POTIM = 0.5
   STRESSTYPE = 2
   ISMEAR = 0
   SIGMA = 0.01
   LORBIT = 10
   NEDOS = 6001
   NWRITE = 1
   LWAVE = .FALSE.
   LCHARG = .FALSE.
   ICHARG = 11
   NCORE = 4
   LPLANE = .TRUE.

 POTCAR:    PAW_PBE As_GW 20Mar2012
 POTCAR:    PAW_PBE As_GW 20Mar2012

  PAW_PBE As_GW 20Mar2012               :

 POSCAR: pnictogen honeycomb monolayer
  positions in direct lattice
  velocities in cartesian coordinates
 exchange correlation table for  LEXCH =        8
   RHO(1)=    0.500       N(1)  =     2000
   RHO(2)=  100.500       N(2)  =     4000

 ion  position               nearest neighbor table
   1  0.667  0.333  0.456-   2 2.51   2 2.51   2 2.51
   2  0.333  0.667  0.544-   1 2.51   1 2.51   1 2.51

  LATTYP: Found a hexagonal cell.
 ALAT       =     3.6068925390
 C/A-ratio  =     4.4359513978

  Lattice vectors:

 A1 = (   3.6068925390,   0.0000000000,   0.0000000000)
 A2 = (  -1.8034462695,   3.1236605675,   0.0000000000)
 A3 = (   0.0000000000,   0.0000000000,  16.0000000000)

Analysis of symmetry for initial positions (statically):
 Subroutine PRICEL returns:
 Original cell was already a primitive cell.

 Routine SETGRP: Setting up the symmetry group for a
 hexagonal supercell.

 Subroutine GETGRP returns: Found 12 space group operations
 (whereof 12 operations were pure point group operations)
 out of a pool of 24 trial point group operations.

The static configuration has the point symmetry D_3d.

Analysis of symmetry for dynamics (positions and initial velocities):
 Subroutine PRICEL returns:
 Original cell was already a primitive cell.

 Routine SETGRP: Setting up the symmetry group for a
 hexagonal supercell.

 Subroutine GETGRP returns: Found 12 space group operations
 (whereof 12 operations were pure point group operations)
 out of a pool of 24 trial point group operations.

The dynamic configuration has the point symmetry D_3d.

 Subroutine INISYM returns: Found 12 space group operations
 (whereof 12 operations are pure point group operations),
 and found     1 'primitive' translations

                                     Primitive cell

  volume of cell :     180.2673

  direct lattice vectors                    reciprocal lattice vectors
     3.606892539  0.000000000  0.000000000     0.277246962  0.160068608  0.000000000
    -1.803446269  3.123660567  0.000000000     0.000000000  0.320137217  0.000000000
     0.000000000  0.000000000 16.000000000     0.000000000  0.000000000  0.062500000

  length of vectors
     3.606892539  3.606892539 16.000000000     0.320137217  0.320137217  0.062500000

  position of ions in fractional coordinates (direct lattice)
     0.666666667  0.333333333  0.456343136
     0.333333333  0.666666667  0.543656864

  ion indices of the primitive-cell ions
   primitive index   ion index
                 1           1
                 2           2

 KPOINTS: kpoints along symmetry lines

Interpolating k-points between supplied coordinates.

 Line segments in fractional coordinates (reciprocal lattice):
    0.000000  0.000000  0.000000  ...  0.666667 -0.333333  0.000000
    0.666667 -0.333333  0.000000  ...  0.333333  0.333333  0.000000
    0.333333  0.333333  0.000000  ...  0.000000  0.000000  0.000000

 Generated    50 points on each line segment, for a total of    150 k-points:

 Following reciprocal coordinates:
            Coordinates               Weight
  0.000000  0.000000  0.000000      0.006667
  0.013605 -0.006803  0.000000      0.006667
  0.027211 -0.013605  0.000000      0.006667
  0.040816 -0.020408  0.000000      0.006667
  0.054422 -0.027211  0.000000      0.006667
  0.068027 -0.034014  0.000000      0.006667
  0.081633 -0.040816  0.000000      0.006667
  0.095238 -0.047619  0.000000      0.006667
  0.108844 -0.054422  0.000000      0.006667
  0.122449 -0.061224  0.000000      0.006667
  0.136054 -0.068027  0.000000      0.006667
  0.149660 -0.074830  0.000000      0.006667
  0.163265 -0.081633  0.000000      0.006667
  0.176871 -0.088435  0.000000      0.006667
  0.190476 -0.095238  0.000000      0.006667
  0.204082 -0.102041  0.000000      0.006667
  0.217687 -0.108844  0.000000      0.006667
  0.231293 -0.115646  0.000000      0.006667
  0.244898 -0.122449  0.000000      0.006667
  0.258503 -0.129252  0.000000      0.006667
  0.272109 -0.136054  0.000000      0.006667
  0.285714 -0.142857  0.000000      0.006667
  0.299320 -0.149660  0.000000      0.006667
  0.312925 -0.156463  0.000000      0.006667
  0.326531 -0.163265  0.000000      0.006667
  0.340136 -0.170068  0.000000      0.006667
  0.353741 -0.176871  0.000000      0.006667
  0.367347 -0.183673  0.000000      0.006667
  0.380952 -0.190476  0.000000      0.006667
  0.394558 -0.197279  0.000000      0.006667
  0.408163 -0.204082  0.000000      0.006667
  0.421769 -0.210884  0.000000      0.006667
  0.435374 -0.217687  0.000000      0.006667
  0.448980 -0.224490  0.000000      0.006667
  0.462585 -0.231293  0.000000      0.006667
  0.476190 -0.238095  0.000000      0.006667
  0.489796 -0.244898  0.000000      0.006667
  0.503401 -0.251701  0.000000      0.006667
  0.517007 -0.258503  0.000000      0.006667
  0.530612 -0.265306  0.000000      0.006667
  0.544218 -0.272109  0.000000      0.006667
  0.557823 -0.278912  0.000000      0.006667
  0.571429 -0.285714  0.000000      0.006667
  0.585034 -0.292517  0.000000      0.006667
  0.598639 -0.299320  0.000000      0.006667
  0.612245 -0.306122  0.000000      0.006667
  0.625850 -0.312925  0.000000      0.006667
  0.639456 -0.319728  0.000000      0.006667
  0.653061 -0.326531  0.000000      0.006667
  0.666667 -0.333333  0.000000      0.006667
  0.666667 -0.333333  0.000000      0.006667
  0.659864 -0.319728  0.000000      0.006667
  0.653061 -0.306122  0.000000      0.006667
  0.646259 -0.292517  0.000000      0.006667
  0.639456 -0.278912  0.000000      0.006667
  0.632653 -0.265306  0.000000      0.006667
  0.625850 -0.251701  0.000000      0.006667
  0.619048 -0.238095  0.000000      0.006667
  0.612245 -0.224490  0.000000      0.006667
  0.605442 -0.210884  0.000000      0.006667
[...]
  0.095238  0.095238  0.000000      0.006667
  0.088435  0.088435  0.000000      0.006667
  0.081633  0.081633  0.000000      0.006667
  0.074830  0.074830  0.000000      0.006667
  0.068027  0.068027  0.000000      0.006667
  0.061224  0.061224  0.000000      0.006667
  0.054422  0.054422  0.000000      0.006667
  0.047619  0.047619  0.000000      0.006667
  0.040816  0.040816  0.000000      0.006667
  0.034014  0.034014  0.000000      0.006667
  0.027211  0.027211  0.000000      0.006667
  0.020408  0.020408  0.000000      0.006667
  0.013605  0.013605  0.000000      0.006667
  0.006803  0.006803  0.000000      0.006667
  0.000000  0.000000  0.000000      0.006667

 Following cartesian coordinates:
            Coordinates               Weight
  0.000000  0.000000  0.000000      0.006667
  0.003772  0.000000  0.000000      0.006667
  0.007544  0.000000  0.000000      0.006667
  0.011316  0.000000  0.000000      0.006667
  0.015088  0.000000  0.000000      0.006667
  0.018860  0.000000  0.000000      0.006667
  0.022632  0.000000  0.000000      0.006667
  0.026404  0.000000  0.000000      0.006667
  0.030177  0.000000  0.000000      0.006667
  0.033949  0.000000  0.000000      0.006667
  0.037721  0.000000  0.000000      0.006667
  0.041493  0.000000  0.000000      0.006667
  0.045265  0.000000  0.000000      0.006667
  0.049037  0.000000  0.000000      0.006667
  0.052809  0.000000  0.000000      0.006667
  0.056581  0.000000  0.000000      0.006667
  0.060353  0.000000  0.000000      0.006667
  0.064125  0.000000  0.000000      0.006667
  0.067897  0.000000  0.000000      0.006667
  0.071669  0.000000  0.000000      0.006667
  0.075441  0.000000  0.000000      0.006667
  0.079213  0.000000  0.000000      0.006667
  0.082985  0.000000  0.000000      0.006667
  0.086758  0.000000  0.000000      0.006667
  0.090530  0.000000  0.000000      0.006667
  0.094302  0.000000  0.000000      0.006667
  0.098074  0.000000  0.000000      0.006667
  0.101846  0.000000  0.000000      0.006667
  0.105618  0.000000  0.000000      0.006667
  0.109390  0.000000  0.000000      0.006667
  0.113162  0.000000  0.000000      0.006667
  0.116934  0.000000  0.000000      0.006667
  0.120706  0.000000  0.000000      0.006667
  0.124478  0.000000  0.000000      0.006667
  0.128250  0.000000  0.000000      0.006667
  0.132022  0.000000  0.000000      0.006667
  0.135794  0.000000  0.000000      0.006667
  0.139566  0.000000  0.000000      0.006667
  0.143339  0.000000  0.000000      0.006667
  0.147111  0.000000  0.000000      0.006667
  0.150883  0.000000  0.000000      0.006667
  0.154655  0.000000  0.000000      0.006667
  0.158427  0.000000  0.000000      0.006667
  0.162199  0.000000  0.000000      0.006667
  0.165971  0.000000  0.000000      0.006667
  0.169743  0.000000  0.000000      0.006667
  0.173515  0.000000  0.000000      0.006667
  0.177287  0.000000  0.000000      0.006667
  0.181059  0.000000  0.000000      0.006667
  0.184831  0.000000  0.000000      0.006667
  0.184831  0.000000  0.000000      0.006667
  0.182945  0.003267  0.000000      0.006667
  0.181059  0.006533  0.000000      0.006667
  0.179173  0.009800  0.000000      0.006667
  0.177287  0.013067  0.000000      0.006667
  0.175401  0.016334  0.000000      0.006667
  0.173515  0.019600  0.000000      0.006667
  0.171629  0.022867  0.000000      0.006667
  0.169743  0.026134  0.000000      0.006667
  0.167857  0.029400  0.000000      0.006667
[...]
  0.026404  0.045734  0.000000      0.006667
  0.024518  0.042467  0.000000      0.006667
  0.022632  0.039200  0.000000      0.006667
  0.020746  0.035934  0.000000      0.006667
  0.018860  0.032667  0.000000      0.006667
  0.016974  0.029400  0.000000      0.006667
  0.015088  0.026134  0.000000      0.006667
  0.013202  0.022867  0.000000      0.006667
  0.011316  0.019600  0.000000      0.006667
  0.009430  0.016334  0.000000      0.006667
  0.007544  0.013067  0.000000      0.006667
  0.005658  0.009800  0.000000      0.006667
  0.003772  0.006533  0.000000      0.006667
  0.001886  0.003267  0.000000      0.006667
  0.000000  0.000000  0.000000      0.006667

 SYSTEM =  unknown system
 POSCAR =  pnictogen honeycomb monolayer

 Startparameter for this run:
   NWRITE =      1    write-flag & timer
   PREC   = accura    normal or accurate (medium, high low for compatibility)
   ISTART =      0    job   : 0-new  1-cont  2-samecut
   ICHARG =     11    charge: 1-file 2-atom 10-const
   ISPIN  =      1    spin polarized calculation?
   LNONCOLLINEAR =      F non collinear calculations
   LSORBIT =      F    spin-orbit coupling
   INIWAV =      1    electr: 0-lowe 1-rand  2-diag
   LASPH  =      T    aspherical Exc in radial PAW
[...]
   0.07544135  0.00000000  0.00000000       0.007
   0.07921342  0.00000000  0.00000000       0.007
   0.08298549  0.00000000  0.00000000       0.007
   0.08675755  0.00000000  0.00000000       0.007
   0.09052962  0.00000000  0.00000000       0.007
   0.09430169  0.00000000  0.00000000       0.007
   0.09807376  0.00000000  0.00000000       0.007
   0.10184582  0.00000000  0.00000000       0.007
   0.10561789  0.00000000  0.00000000       0.007
   0.10938996  0.00000000  0.00000000       0.007
   0.11316203  0.00000000  0.00000000       0.007
   0.11693409  0.00000000  0.00000000       0.007
   0.12070616  0.00000000  0.00000000       0.007
   0.12447823  0.00000000  0.00000000       0.007
   0.12825030  0.00000000  0.00000000       0.007
   0.13202236  0.00000000  0.00000000       0.007
   0.13579443  0.00000000  0.00000000       0.007
   0.13956650  0.00000000  0.00000000       0.007
   0.14333857  0.00000000  0.00000000       0.007
   0.14711063  0.00000000  0.00000000       0.007
   0.15088270  0.00000000  0.00000000       0.007
   0.15465477  0.00000000  0.00000000       0.007
   0.15842684  0.00000000  0.00000000       0.007
   0.16219890  0.00000000  0.00000000       0.007
   0.16597097  0.00000000  0.00000000       0.007
   0.16974304  0.00000000  0.00000000       0.007
   0.17351511  0.00000000  0.00000000       0.007
   0.17728717  0.00000000  0.00000000       0.007
   0.18105924  0.00000000  0.00000000       0.007
   0.18483131  0.00000000  0.00000000       0.007
   0.18483131  0.00000000  0.00000000       0.007
   0.18294527  0.00326671  0.00000000       0.007
   0.18105924  0.00653341  0.00000000       0.007
   0.17917321  0.00980012  0.00000000       0.007
   0.17728717  0.01306683  0.00000000       0.007
   0.17540114  0.01633353  0.00000000       0.007
   0.17351511  0.01960024  0.00000000       0.007
   0.17162907  0.02286694  0.00000000       0.007
   0.16974304  0.02613365  0.00000000       0.007
   0.16785700  0.02940036  0.00000000       0.007
[...]
   0.02640447  0.04573389  0.00000000       0.007
   0.02451844  0.04246718  0.00000000       0.007
   0.02263241  0.03920048  0.00000000       0.007
   0.02074637  0.03593377  0.00000000       0.007
   0.01886034  0.03266706  0.00000000       0.007
   0.01697430  0.02940036  0.00000000       0.007
   0.01508827  0.02613365  0.00000000       0.007
   0.01320224  0.02286694  0.00000000       0.007
   0.01131620  0.01960024  0.00000000       0.007
   0.00943017  0.01633353  0.00000000       0.007
   0.00754414  0.01306683  0.00000000       0.007
   0.00565810  0.00980012  0.00000000       0.007
   0.00377207  0.00653341  0.00000000       0.007
   0.00188603  0.00326671  0.00000000       0.007
   0.00000000  0.00000000  0.00000000       0.007

 k-points in reciprocal lattice and weights: kpoints along symmetry lines
   0.00000000  0.00000000  0.00000000       0.007
   0.01360544 -0.00680272  0.00000000       0.007
   0.02721088 -0.01360544  0.00000000       0.007
   0.04081633 -0.02040816  0.00000000       0.007
   0.05442177 -0.02721088  0.00000000       0.007
   0.06802721 -0.03401361  0.00000000       0.007
   0.08163265 -0.04081633  0.00000000       0.007
   0.09523810 -0.04761905  0.00000000       0.007
   0.10884354 -0.05442177  0.00000000       0.007
   0.12244898 -0.06122449  0.00000000       0.007
   0.13605442 -0.06802721  0.00000000       0.007
   0.14965986 -0.07482993  0.00000000       0.007
   0.16326531 -0.08163265  0.00000000       0.007
   0.17687075 -0.08843537  0.00000000       0.007
   0.19047619 -0.09523810  0.00000000       0.007
   0.20408163 -0.10204082  0.00000000       0.007
   0.21768707 -0.10884354  0.00000000       0.007
   0.23129252 -0.11564626  0.00000000       0.007
   0.24489796 -0.12244898  0.00000000       0.007
   0.25850340 -0.12925170  0.00000000       0.007
   0.27210884 -0.13605442  0.00000000       0.007
   0.28571429 -0.14285714  0.00000000       0.007
   0.29931973 -0.14965986  0.00000000       0.007
   0.31292517 -0.15646259  0.00000000       0.007
   0.32653061 -0.16326531  0.00000000       0.007
   0.34013605 -0.17006803  0.00000000       0.007
   0.35374150 -0.17687075  0.00000000       0.007
   0.36734694 -0.18367347  0.00000000       0.007
   0.38095238 -0.19047619  0.00000000       0.007
   0.39455782 -0.19727891  0.00000000       0.007
   0.40816327 -0.20408163  0.00000000       0.007
   0.42176871 -0.21088435  0.00000000       0.007
   0.43537415 -0.21768707  0.00000000       0.007
   0.44897959 -0.22448980  0.00000000       0.007
   0.46258503 -0.23129252  0.00000000       0.007
   0.47619048 -0.23809524  0.00000000       0.007
   0.48979592 -0.24489796  0.00000000       0.007
   0.50340136 -0.25170068  0.00000000       0.007
   0.51700680 -0.25850340  0.00000000       0.007
   0.53061224 -0.26530612  0.00000000       0.007
   0.54421769 -0.27210884  0.00000000       0.007
   0.55782313 -0.27891156  0.00000000       0.007
   0.57142857 -0.28571429  0.00000000       0.007
   0.58503401 -0.29251701  0.00000000       0.007
   0.59863946 -0.29931973  0.00000000       0.007
   0.61224490 -0.30612245  0.00000000       0.007
   0.62585034 -0.31292517  0.00000000       0.007
   0.63945578 -0.31972789  0.00000000       0.007
   0.65306122 -0.32653061  0.00000000       0.007
   0.66666667 -0.33333333  0.00000000       0.007
   0.66666667 -0.33333333  0.00000000       0.007
   0.65986395 -0.31972789  0.00000000       0.007
   0.65306122 -0.30612245  0.00000000       0.007
   0.64625850 -0.29251701  0.00000000       0.007
   0.63945578 -0.27891156  0.00000000       0.007
   0.63265306 -0.26530612  0.00000000       0.007
   0.62585034 -0.25170068  0.00000000       0.007
   0.61904762 -0.23809524  0.00000000       0.007
   0.61224490 -0.22448980  0.00000000       0.007
   0.60544218 -0.21088435  0.00000000       0.007
[...]
   0.09523810  0.09523810  0.00000000       0.007
   0.08843537  0.08843537  0.00000000       0.007
   0.08163265  0.08163265  0.00000000       0.007
   0.07482993  0.07482993  0.00000000       0.007
   0.06802721  0.06802721  0.00000000       0.007
   0.06122449  0.06122449  0.00000000       0.007
   0.05442177  0.05442177  0.00000000       0.007
   0.04761905  0.04761905  0.00000000       0.007
   0.04081633  0.04081633  0.00000000       0.007
   0.03401361  0.03401361  0.00000000       0.007
   0.02721088  0.02721088  0.00000000       0.007
   0.02040816  0.02040816  0.00000000       0.007
   0.01360544  0.01360544  0.00000000       0.007
   0.00680272  0.00680272  0.00000000       0.007
   0.00000000  0.00000000  0.00000000       0.007

 position of ions in fractional coordinates (direct lattice)
   0.66666667  0.33333333  0.45634314
   0.33333333  0.66666667  0.54365686

 position of ions in cartesian coordinates  (Angst):
   1.80344627  1.04122019  7.30149017
   0.00000000  2.08244038  8.69850983

 k-point   1 :   0.0000 0.0000 0.0000  plane waves:    1485
 k-point   2 :   0.0136-0.0068 0.0000  plane waves:    1485
 k-point   3 :   0.0272-0.0136 0.0000  plane waves:    1483
 k-point   4 :   0.0408-0.0204 0.0000  plane waves:    1489
 k-point   5 :   0.0544-0.0272 0.0000  plane waves:    1493
 k-point   6 :   0.0680-0.0340 0.0000  plane waves:    1489
 k-point   7 :   0.0816-0.0408 0.0000  plane waves:    1485
 k-point   8 :   0.0952-0.0476 0.0000  plane waves:    1489
 k-point   9 :   0.1088-0.0544 0.0000  plane waves:    1491
 k-point  10 :   0.1224-0.0612 0.0000  plane waves:    1495
 k-point  11 :   0.1361-0.0680 0.0000  plane waves:    1495
 k-point  12 :   0.1497-0.0748 0.0000  plane waves:    1499
 k-point  13 :   0.1633-0.0816 0.0000  plane waves:    1503
 k-point  14 :   0.1769-0.0884 0.0000  plane waves:    1499
 k-point  15 :   0.1905-0.0952 0.0000  plane waves:    1499
 k-point  16 :   0.2041-0.1020 0.0000  plane waves:    1507
 k-point  17 :   0.2177-0.1088 0.0000  plane waves:    1503
 k-point  18 :   0.2313-0.1156 0.0000  plane waves:    1497
 k-point  19 :   0.2449-0.1224 0.0000  plane waves:    1499
 k-point  20 :   0.2585-0.1293 0.0000  plane waves:    1495
 k-point  21 :   0.2721-0.1361 0.0000  plane waves:    1491
 k-point  22 :   0.2857-0.1429 0.0000  plane waves:    1491
 k-point  23 :   0.2993-0.1497 0.0000  plane waves:    1497
 k-point  24 :   0.3129-0.1565 0.0000  plane waves:    1493
 k-point  25 :   0.3265-0.1633 0.0000  plane waves:    1493
 k-point  26 :   0.3401-0.1701 0.0000  plane waves:    1489
 k-point  27 :   0.3537-0.1769 0.0000  plane waves:    1477
 k-point  28 :   0.3673-0.1837 0.0000  plane waves:    1477
 k-point  29 :   0.3810-0.1905 0.0000  plane waves:    1479
 k-point  30 :   0.3946-0.1973 0.0000  plane waves:    1475
 k-point  31 :   0.4082-0.2041 0.0000  plane waves:    1477
 k-point  32 :   0.4218-0.2109 0.0000  plane waves:    1475
 k-point  33 :   0.4354-0.2177 0.0000  plane waves:    1471
 k-point  34 :   0.4490-0.2245 0.0000  plane waves:    1467
 k-point  35 :   0.4626-0.2313 0.0000  plane waves:    1459
 k-point  36 :   0.4762-0.2381 0.0000  plane waves:    1459
 k-point  37 :   0.4898-0.2449 0.0000  plane waves:    1457
 k-point  38 :   0.5034-0.2517 0.0000  plane waves:    1451
 k-point  39 :   0.5170-0.2585 0.0000  plane waves:    1450
 k-point  40 :   0.5306-0.2653 0.0000  plane waves:    1446
 k-point  41 :   0.5442-0.2721 0.0000  plane waves:    1452
 k-point  42 :   0.5578-0.2789 0.0000  plane waves:    1448
 k-point  43 :   0.5714-0.2857 0.0000  plane waves:    1448
 k-point  44 :   0.5850-0.2925 0.0000  plane waves:    1462
 k-point  45 :   0.5986-0.2993 0.0000  plane waves:    1474
 k-point  46 :   0.6122-0.3061 0.0000  plane waves:    1476
 k-point  47 :   0.6259-0.3129 0.0000  plane waves:    1476
 k-point  48 :   0.6395-0.3197 0.0000  plane waves:    1472
 k-point  49 :   0.6531-0.3265 0.0000  plane waves:    1464
 k-point  50 :   0.6667-0.3333 0.0000  plane waves:    1464
 k-point  51 :   0.6667-0.3333 0.0000  plane waves:    1464
 k-point  52 :   0.6599-0.3197 0.0000  plane waves:    1468
 k-point  53 :   0.6531-0.3061 0.0000  plane waves:    1468
 k-point  54 :   0.6463-0.2925 0.0000  plane waves:    1474
 k-point  55 :   0.6395-0.2789 0.0000  plane waves:    1470
 k-point  56 :   0.6327-0.2653 0.0000  plane waves:    1470
 k-point  57 :   0.6259-0.2517 0.0000  plane waves:    1466
 k-point  58 :   0.6190-0.2381 0.0000  plane waves:    1462
 k-point  59 :   0.6122-0.2245 0.0000  plane waves:    1458
 k-point  60 :   0.6054-0.2109 0.0000  plane waves:    1460
[...]
 k-point 136 :   0.0952 0.0952 0.0000  plane waves:    1499
 k-point 137 :   0.0884 0.0884 0.0000  plane waves:    1499
 k-point 138 :   0.0816 0.0816 0.0000  plane waves:    1503
 k-point 139 :   0.0748 0.0748 0.0000  plane waves:    1499
 k-point 140 :   0.0680 0.0680 0.0000  plane waves:    1495
 k-point 141 :   0.0612 0.0612 0.0000  plane waves:    1495
 k-point 142 :   0.0544 0.0544 0.0000  plane waves:    1491
 k-point 143 :   0.0476 0.0476 0.0000  plane waves:    1489
 k-point 144 :   0.0408 0.0408 0.0000  plane waves:    1485
 k-point 145 :   0.0340 0.0340 0.0000  plane waves:    1489
 k-point 146 :   0.0272 0.0272 0.0000  plane waves:    1493
 k-point 147 :   0.0204 0.0204 0.0000  plane waves:    1489
 k-point 148 :   0.0136 0.0136 0.0000  plane waves:    1483
 k-point 149 :   0.0068 0.0068 0.0000  plane waves:    1485
 k-point 150 :   0.0000 0.0000 0.0000  plane waves:    1485

 maximum and minimum number of plane-waves per node :       381      355

 maximum number of plane-waves:      1507
 maximum index in each direction:
   IXMAX=    4   IYMAX=    4   IZMAX=   19
   IXMIN=   -5   IYMIN=   -4   IZMIN=  -19

 parallel 3D FFT for wavefunctions:
    minimum data exchange during FFTs selected (reduces bandwidth)
 parallel 3D FFT for charge:
    minimum data exchange during FFTs selected (reduces bandwidth)

 initial charge density was supplied:
 number of electron       9.9999999 magnetization
 keeping initial charge density in first step

 Maximum index for augmentation-charges         3084 (set IRDMAX)

 First call to EWALD:  gamma=   0.314
 Maximum number of real-space cells 5x 5x 1
 Maximum number of reciprocal cells 2x 2x 7

--------------------------------------- Ionic step        1  -------------------------------------------

--------------------------------------- Iteration      1(   1)  ---------------------------------------

 eigenvalue-minimisations  :  4840
 total energy-change (2. order) : 0.2968135E+02  (-0.2078465E+03)
 number of electron       9.9999999 magnetization
 augmentation part        9.9999999 magnetization

 Free energy of the ion-electron system (eV)
  alpha Z        PSCENC =         5.26383816
  Ewald energy   TEWEN  =       378.22030483
  -Hartree energ DENC   =      -670.07988326
  -exchange      EXHF   =         0.00000000
  -V(xc)+E(xc)   XCENC  =       -23.49315673
  PAW double counting   =       332.29420147     -289.56758992
  entropy T*S    EENTRO =        -0.00001130
  eigenvalues    EBANDS =       -43.32029253
  atomic energy  EATOM  =       340.36393574
  Solvation  Ediel_sol  =         0.00000000
  free energy    TOTEN  =        29.68134646 eV

  energy without entropy =       29.68135776  energy(sigma->0) =       29.68135211

[...]

 eigenvalue-minimisations  :  6904
 total energy-change (2. order) :-0.3580289E+02  (-0.3374570E+02)
 number of electron       9.9999999 magnetization
 augmentation part        9.9999999 magnetization

[...]

--------------------------------------- Iteration      1(  13)  ---------------------------------------

 eigenvalue-minimisations  :  3888
 total energy-change (2. order) :-0.5655920E-10  (-0.8401891E-10)
 number of electron       9.9999999 magnetization
 augmentation part        9.9999999 magnetization

 Free energy of the ion-electron system (eV)
  alpha Z        PSCENC =         5.26383816
  Ewald energy   TEWEN  =       378.22030483
  -Hartree energ DENC   =      -670.07988326
  -exchange      EXHF   =         0.00000000
  -V(xc)+E(xc)   XCENC  =       -23.49315673
  PAW double counting   =       332.29420147     -289.56758992
  entropy T*S    EENTRO =        -0.00000000
  eigenvalues    EBANDS =       -82.33370406
  atomic energy  EATOM  =       340.36393574
  Solvation  Ediel_sol  =         0.00000000
  free energy    TOTEN  =        -9.33205377 eV

  energy without entropy =       -9.33205377  energy(sigma->0) =       -9.33205377

 average (electrostatic) potential at core
  the test charge radii are     1.0621
  (the norm of the test charge is              1.0000)
       1 -57.2649       2 -57.2649

 E-fermi :  -2.9705     XC(G=0):  -3.2504     alpha+bet : -2.4472

 Fermi energy:        -2.9704732932

 k-point     1 :       0.0000    0.0000    0.0000
  band No.  band energies     occupation
      1     -16.4747      2.00000
      2     -10.1870      2.00000
      3      -3.5626      2.00000
      4      -3.0130      2.00000
      5      -3.0130      2.00000
      6      -1.0922      0.00000
      7       0.4764      0.00000
      8       0.4764      0.00000
      9       1.9033      0.00000
     10       1.9965      0.00000
     11       3.3760      0.00000
     12       4.3040      0.00000
     13       5.8644      0.00000
     14       6.8851      0.00000
     15       7.0694      0.00000
     16       7.0694      0.00000

[...]

 k-point   150 :       0.0000    0.0000    0.0000
  band No.  band energies     occupation
      1     -16.4747      2.00000
      2     -10.1870      2.00000
      3      -3.5626      2.00000
      4      -3.0130      2.00000
      5      -3.0130      2.00000
      6      -1.0922      0.00000
      7       0.4764      0.00000
      8       0.4764      0.00000
      9       1.9033      0.00000
     10       1.9965      0.00000
     11       3.3760      0.00000
     12       4.3040      0.00000
     13       5.8644      0.00000
     14       6.8851      0.00000
     15       7.0694      0.00000
     16       7.0694      0.00000

 soft charge-density along one line, spin component           1
         0         1         2         3         4         5         6         7         8         9
 total charge-density along one line

------------------------ aborting loop because EDIFF is reached ----------------------------------------

 total charge

# of ion       s       p       d       tot
    1        1.288   1.349   0.042   2.679
    2        1.288   1.349   0.042   2.679
tot          2.576   2.698   0.084   5.357

  FREE ENERGIE OF THE ION-ELECTRON SYSTEM (eV)
  free  energy   TOTEN  =        -9.33205377 eV

  energy  without entropy=       -9.33205377  energy(sigma->0) =       -9.33205377

 total charge

# of ion       s       p       d       tot
    1        1.288   1.349   0.042   2.679
    2        1.288   1.349   0.042   2.679
tot          2.576   2.698   0.084   5.357