 vasp.6.4.2 20Jul23 (build Nov 14 2023 12:59:38) complex

 executed on             LinuxIFC date 2023.12.17  08:38:28

 INCAR:
   ENCUT = 234.789750
   ALGO = Normal
   NELM = 200
   NELMIN = 6
   NELMDL = -12
   EDIFF = 1.0E-6
   AMIX = 0.1
   BMIX = 0.0001
   NBANDS = 16
   PREC = Accurate
   IVDW = 0
   ISPIN = 1
   ADDGRID = .TRUE.
   LASPH = .TRUE.
   NSW = 0
   EDIFFG = -0.010
   IBRION = 2
   ISIF = -1
   POTIM = 0.5
   STRESSTYPE = 2
   ISMEAR = 0
   SIGMA = 0.01
   LORBIT = 10
   NEDOS = 6001
   NWRITE = 1
   LWAVE = .FALSE.
   LCHARG = .FALSE.
   NCORE = 4
   LPLANE = .TRUE.

 POTCAR:    PAW_PBE As_GW 20Mar2012
 POTCAR:    PAW_PBE As_GW 20Mar2012

  PAW_PBE As_GW 20Mar2012               :

 POSCAR: pnictogen honeycomb monolayer
  positions in direct lattice
  velocities in cartesian coordinates
 exchange correlation table for  LEXCH =        8
   RHO(1)=    0.500       N(1)  =     2000
   RHO(2)=  100.500       N(2)  =     4000

 ion  position               nearest neighbor table
   1  0.667  0.333  0.456-   2 2.51   2 2.51   2 2.51
   2  0.333  0.667  0.544-   1 2.51   1 2.51   1 2.51

  LATTYP: Found a hexagonal cell.
 ALAT       =     3.6068925390
 C/A-ratio  =     4.4359513978

  Lattice vectors:

 A1 = (   3.6068925390,   0.0000000000,   0.0000000000)
 A2 = (  -1.8034462695,   3.1236605675,   0.0000000000)
 A3 = (   0.0000000000,   0.0000000000,  16.0000000000)

Analysis of symmetry for initial positions (statically):
 Subroutine PRICEL returns:
 Original cell was already a primitive cell.

 Routine SETGRP: Setting up the symmetry group for a
 hexagonal supercell.

 Subroutine GETGRP returns: Found 12 space group operations
 (whereof 12 operations were pure point group operations)
 out of a pool of 24 trial point group operations.

The static configuration has the point symmetry D_3d.

Analysis of symmetry for dynamics (positions and initial velocities):
 Subroutine PRICEL returns:
 Original cell was already a primitive cell.

 Routine SETGRP: Setting up the symmetry group for a
 hexagonal supercell.

 Subroutine GETGRP returns: Found 12 space group operations
 (whereof 12 operations were pure point group operations)
 out of a pool of 24 trial point group operations.

The dynamic configuration has the point symmetry D_3d.

 Subroutine INISYM returns: Found 12 space group operations
 (whereof 12 operations are pure point group operations),
 and found     1 'primitive' translations

                                     Primitive cell

  volume of cell :     180.2673

  direct lattice vectors                    reciprocal lattice vectors
     3.606892539  0.000000000  0.000000000     0.277246962  0.160068608  0.000000000
    -1.803446269  3.123660567  0.000000000     0.000000000  0.320137217  0.000000000
     0.000000000  0.000000000 16.000000000     0.000000000  0.000000000  0.062500000

  length of vectors
     3.606892539  3.606892539 16.000000000     0.320137217  0.320137217  0.062500000

  position of ions in fractional coordinates (direct lattice)
     0.666666667  0.333333333  0.456343136
     0.333333333  0.666666667  0.543656864

  ion indices of the primitive-cell ions
   primitive index   ion index
                 1           1
                 2           2

 KPOINTS: kpoints

Automatic generation of k-mesh.
 Grid dimensions read from file:
 generate k-points for:   26   26    1

 Generating k-lattice:

  Cartesian coordinates                     Fractional coordinates (reciprocal lattice)
     0.010663345  0.006156485  0.000000000     0.038461538  0.000000000  0.000000000
     0.000000000  0.012312970  0.000000000     0.000000000  0.038461538  0.000000000
     0.000000000  0.000000000  0.062500000     0.000000000  0.000000000  1.000000000

  Length of vectors
     0.012312970  0.012312970  0.062500000

  Shift w.r.t. Gamma in fractional coordinates (k-lattice)
     0.000000000  0.000000000  0.000000000

 Subroutine IBZKPT returns following result:

 Found     70 irreducible k-points:

 Following reciprocal coordinates:
            Coordinates               Weight
  0.000000  0.000000  0.000000      1.000000
  0.038462  0.000000  0.000000      6.000000
  0.076923  0.000000  0.000000      6.000000
  0.115385 -0.000000  0.000000      6.000000
  0.153846  0.000000  0.000000      6.000000
  0.192308  0.000000  0.000000      6.000000
  0.230769 -0.000000  0.000000      6.000000
  0.269231  0.000000  0.000000      6.000000
  0.307692  0.000000  0.000000      6.000000
  0.346154 -0.000000  0.000000      6.000000
  0.384615  0.000000  0.000000      6.000000
  0.423077  0.000000  0.000000      6.000000
  0.461538 -0.000000  0.000000      6.000000
  0.500000  0.000000  0.000000      3.000000
  0.038462  0.038462  0.000000      6.000000
  0.076923  0.038462  0.000000     12.000000
  0.115385  0.038462  0.000000     12.000000
  0.153846  0.038462  0.000000     12.000000
  0.192308  0.038462  0.000000     12.000000
  0.230769  0.038462  0.000000     12.000000
  0.269231  0.038462  0.000000     12.000000
  0.307692  0.038462  0.000000     12.000000
  0.346154  0.038462  0.000000     12.000000
  0.384615  0.038462  0.000000     12.000000
  0.423077  0.038462  0.000000     12.000000
  0.461538  0.038462  0.000000     12.000000
  0.076923  0.076923  0.000000      6.000000
  0.115385  0.076923  0.000000     12.000000
  0.153846  0.076923  0.000000     12.000000
  0.192308  0.076923  0.000000     12.000000
  0.230769  0.076923  0.000000     12.000000
  0.269231  0.076923  0.000000     12.000000
  0.307692  0.076923  0.000000     12.000000
  0.346154  0.076923  0.000000     12.000000
  0.384615  0.076923  0.000000     12.000000
  0.423077  0.076923  0.000000     12.000000
  0.461538  0.076923  0.000000      6.000000
  0.115385  0.115385  0.000000      6.000000
  0.153846  0.115385  0.000000     12.000000
  0.192308  0.115385  0.000000     12.000000
  0.230769  0.115385  0.000000     12.000000
  0.269231  0.115385  0.000000     12.000000
  0.307692  0.115385  0.000000     12.000000
  0.346154  0.115385  0.000000     12.000000
  0.384615  0.115385  0.000000     12.000000
  0.423077  0.115385  0.000000     12.000000
  0.153846  0.153846  0.000000      6.000000
  0.192308  0.153846  0.000000     12.000000
  0.230769  0.153846  0.000000     12.000000
  0.269231  0.153846  0.000000     12.000000
  0.307692  0.153846  0.000000     12.000000
  0.346154  0.153846  0.000000     12.000000
  0.384615  0.153846  0.000000     12.000000
  0.423077  0.153846  0.000000      6.000000
  0.192308  0.192308  0.000000      6.000000
  0.230769  0.192308  0.000000     12.000000
  0.269231  0.192308  0.000000     12.000000
  0.307692  0.192308  0.000000     12.000000
  0.346154  0.192308  0.000000     12.000000
  0.384615  0.192308  0.000000     12.000000
  0.230769  0.230769  0.000000      6.000000
  0.269231  0.230769  0.000000     12.000000
  0.307692  0.230769  0.000000     12.000000
  0.346154  0.230769  0.000000     12.000000
  0.384615  0.230769  0.000000      6.000000
  0.269231  0.269231  0.000000      6.000000
  0.307692  0.269231  0.000000     12.000000
  0.346154  0.269231  0.000000     12.000000
  0.307692  0.307692  0.000000      6.000000
  0.346154  0.307692  0.000000      6.000000

 Following cartesian coordinates:
            Coordinates               Weight
  0.000000  0.000000  0.000000      1.000000
  0.010663  0.006156  0.000000      6.000000
  0.021327  0.012313  0.000000      6.000000
  0.031990  0.018469  0.000000      6.000000
  0.042653  0.024626  0.000000      6.000000
  0.053317  0.030782  0.000000      6.000000
  0.063980  0.036939  0.000000      6.000000
  0.074643  0.043095  0.000000      6.000000
  0.085307  0.049252  0.000000      6.000000
  0.095970  0.055408  0.000000      6.000000
  0.106633  0.061565  0.000000      6.000000
  0.117297  0.067721  0.000000      6.000000
  0.127960  0.073878  0.000000      6.000000
  0.138623  0.080034  0.000000      3.000000
  0.010663  0.018469  0.000000      6.000000
  0.021327  0.024626  0.000000     12.000000
  0.031990  0.030782  0.000000     12.000000
  0.042653  0.036939  0.000000     12.000000
  0.053317  0.043095  0.000000     12.000000
  0.063980  0.049252  0.000000     12.000000
  0.074643  0.055408  0.000000     12.000000
  0.085307  0.061565  0.000000     12.000000
  0.095970  0.067721  0.000000     12.000000
  0.106633  0.073878  0.000000     12.000000
  0.117297  0.080034  0.000000     12.000000
  0.127960  0.086191  0.000000     12.000000
  0.021327  0.036939  0.000000      6.000000
  0.031990  0.043095  0.000000     12.000000
  0.042653  0.049252  0.000000     12.000000
  0.053317  0.055408  0.000000     12.000000
  0.063980  0.061565  0.000000     12.000000
  0.074643  0.067721  0.000000     12.000000
  0.085307  0.073878  0.000000     12.000000
  0.095970  0.080034  0.000000     12.000000
  0.106633  0.086191  0.000000     12.000000
  0.117297  0.092347  0.000000     12.000000
  0.127960  0.098504  0.000000      6.000000
  0.031990  0.055408  0.000000      6.000000
  0.042653  0.061565  0.000000     12.000000
  0.053317  0.067721  0.000000     12.000000
  0.063980  0.073878  0.000000     12.000000
  0.074643  0.080034  0.000000     12.000000
  0.085307  0.086191  0.000000     12.000000
  0.095970  0.092347  0.000000     12.000000
  0.106633  0.098504  0.000000     12.000000
  0.117297  0.104660  0.000000     12.000000
  0.042653  0.073878  0.000000      6.000000
  0.053317  0.080034  0.000000     12.000000
  0.063980  0.086191  0.000000     12.000000
  0.074643  0.092347  0.000000     12.000000
  0.085307  0.098504  0.000000     12.000000
  0.095970  0.104660  0.000000     12.000000
  0.106633  0.110817  0.000000     12.000000
  0.117297  0.116973  0.000000      6.000000
  0.053317  0.092347  0.000000      6.000000
  0.063980  0.098504  0.000000     12.000000
  0.074643  0.104660  0.000000     12.000000
  0.085307  0.110817  0.000000     12.000000
  0.095970  0.116973  0.000000     12.000000
  0.106633  0.123130  0.000000     12.000000
  0.063980  0.110817  0.000000      6.000000
  0.074643  0.116973  0.000000     12.000000
  0.085307  0.123130  0.000000     12.000000
  0.095970  0.129286  0.000000     12.000000
  0.106633  0.135443  0.000000      6.000000
  0.074643  0.129286  0.000000      6.000000
  0.085307  0.135443  0.000000     12.000000
  0.095970  0.141599  0.000000     12.000000
  0.085307  0.147756  0.000000      6.000000
  0.095970  0.153912  0.000000      6.000000

 SYSTEM =  unknown system
 POSCAR =  pnictogen honeycomb monolayer

 Startparameter for this run:
   NWRITE =      1    write-flag & timer
   PREC   = accura    normal or accurate (medium, high low for compatibility)
   ISTART =      0    job   : 0-new  1-cont  2-samecut
   ICHARG =      2    charge: 1-file 2-atom 10-const
   ISPIN  =      1    spin polarized calculation?
   LNONCOLLINEAR =      F non collinear calculations
   LSORBIT =      F    spin-orbit coupling
   INIWAV =      1    electr: 0-lowe 1-rand  2-diag
   LASPH  =      T    aspherical Exc in radial PAW
 Electronic Relaxation 1
   ENCUT  =  234.8 eV  17.26 Ry    4.15 a.u.   4.51  4.51 19.99*2*pi/ulx,y,z
   ENINI  =  234.8     initial cutoff
[...]
   0.09597010  0.06772133  0.00000000       0.018
   0.10663345  0.07387782  0.00000000       0.018
   0.11729679  0.08003430  0.00000000       0.018
   0.12796014  0.08619079  0.00000000       0.018
   0.02132669  0.03693891  0.00000000       0.009
   0.03199003  0.04309539  0.00000000       0.018
   0.04265338  0.04925188  0.00000000       0.018
   0.05331672  0.05540836  0.00000000       0.018
   0.06398007  0.06156485  0.00000000       0.018
   0.07464341  0.06772133  0.00000000       0.018
   0.08530676  0.07387782  0.00000000       0.018
   0.09597010  0.08003430  0.00000000       0.018
   0.10663345  0.08619079  0.00000000       0.018
   0.11729679  0.09234727  0.00000000       0.018
   0.12796014  0.09850376  0.00000000       0.009
   0.03199003  0.05540836  0.00000000       0.009
   0.04265338  0.06156485  0.00000000       0.018
   0.05331672  0.06772133  0.00000000       0.018
   0.06398007  0.07387782  0.00000000       0.018
   0.07464341  0.08003430  0.00000000       0.018
   0.08530676  0.08619079  0.00000000       0.018
   0.09597010  0.09234727  0.00000000       0.018
   0.10663345  0.09850376  0.00000000       0.018
   0.11729679  0.10466024  0.00000000       0.018
   0.04265338  0.07387782  0.00000000       0.009
   0.05331672  0.08003430  0.00000000       0.018
   0.06398007  0.08619079  0.00000000       0.018
   0.07464341  0.09234727  0.00000000       0.018
   0.08530676  0.09850376  0.00000000       0.018
   0.09597010  0.10466024  0.00000000       0.018
   0.10663345  0.11081673  0.00000000       0.018
   0.11729679  0.11697321  0.00000000       0.009
   0.05331672  0.09234727  0.00000000       0.009
   0.06398007  0.09850376  0.00000000       0.018
   0.07464341  0.10466024  0.00000000       0.018
   0.08530676  0.11081673  0.00000000       0.018
   0.09597010  0.11697321  0.00000000       0.018
   0.10663345  0.12312970  0.00000000       0.018
   0.06398007  0.11081673  0.00000000       0.009
   0.07464341  0.11697321  0.00000000       0.018
   0.08530676  0.12312970  0.00000000       0.018
   0.09597010  0.12928618  0.00000000       0.018
   0.10663345  0.13544267  0.00000000       0.009
   0.07464341  0.12928618  0.00000000       0.009
   0.08530676  0.13544267  0.00000000       0.018
   0.09597010  0.14159915  0.00000000       0.018
   0.08530676  0.14775564  0.00000000       0.009
   0.09597010  0.15391212  0.00000000       0.009

 k-points in reciprocal lattice and weights: kpoints
   0.00000000  0.00000000  0.00000000       0.001
   0.03846154  0.00000000  0.00000000       0.009
   0.07692308  0.00000000  0.00000000       0.009
   0.11538462 -0.00000000  0.00000000       0.009
   0.15384615  0.00000000  0.00000000       0.009
   0.19230769  0.00000000  0.00000000       0.009
   0.23076923 -0.00000000  0.00000000       0.009
   0.26923077  0.00000000  0.00000000       0.009
   0.30769231  0.00000000  0.00000000       0.009
   0.34615385 -0.00000000  0.00000000       0.009
   0.38461538  0.00000000  0.00000000       0.009
   0.42307692  0.00000000  0.00000000       0.009
   0.46153846 -0.00000000  0.00000000       0.009
   0.50000000  0.00000000  0.00000000       0.004
   0.03846154  0.03846154  0.00000000       0.009
   0.07692308  0.03846154  0.00000000       0.018
   0.11538462  0.03846154  0.00000000       0.018
   0.15384615  0.03846154  0.00000000       0.018
   0.19230769  0.03846154  0.00000000       0.018
   0.23076923  0.03846154  0.00000000       0.018
   0.26923077  0.03846154  0.00000000       0.018
   0.30769231  0.03846154  0.00000000       0.018
   0.34615385  0.03846154  0.00000000       0.018
   0.38461538  0.03846154  0.00000000       0.018
   0.42307692  0.03846154  0.00000000       0.018
   0.46153846  0.03846154  0.00000000       0.018
   0.07692308  0.07692308  0.00000000       0.009
   0.11538462  0.07692308  0.00000000       0.018
   0.15384615  0.07692308  0.00000000       0.018
   0.19230769  0.07692308  0.00000000       0.018
   0.23076923  0.07692308  0.00000000       0.018
   0.26923077  0.07692308  0.00000000       0.018
   0.30769231  0.07692308  0.00000000       0.018
   0.34615385  0.07692308  0.00000000       0.018
   0.38461538  0.07692308  0.00000000       0.018
   0.42307692  0.07692308  0.00000000       0.018
   0.46153846  0.07692308  0.00000000       0.009
   0.11538462  0.11538462  0.00000000       0.009
   0.15384615  0.11538462  0.00000000       0.018
   0.19230769  0.11538462  0.00000000       0.018
   0.23076923  0.11538462  0.00000000       0.018
   0.26923077  0.11538462  0.00000000       0.018
   0.30769231  0.11538462  0.00000000       0.018
   0.34615385  0.11538462  0.00000000       0.018
   0.38461538  0.11538462  0.00000000       0.018
   0.42307692  0.11538462  0.00000000       0.018
   0.15384615  0.15384615  0.00000000       0.009
   0.19230769  0.15384615  0.00000000       0.018
   0.23076923  0.15384615  0.00000000       0.018
   0.26923077  0.15384615  0.00000000       0.018
   0.30769231  0.15384615  0.00000000       0.018
   0.34615385  0.15384615  0.00000000       0.018
   0.38461538  0.15384615  0.00000000       0.018
   0.42307692  0.15384615  0.00000000       0.009
   0.19230769  0.19230769  0.00000000       0.009
   0.23076923  0.19230769  0.00000000       0.018
   0.26923077  0.19230769  0.00000000       0.018
   0.30769231  0.19230769  0.00000000       0.018
   0.34615385  0.19230769  0.00000000       0.018
   0.38461538  0.19230769  0.00000000       0.018
   0.23076923  0.23076923  0.00000000       0.009
   0.26923077  0.23076923  0.00000000       0.018
   0.30769231  0.23076923  0.00000000       0.018
   0.34615385  0.23076923  0.00000000       0.018
   0.38461538  0.23076923  0.00000000       0.009
   0.26923077  0.26923077  0.00000000       0.009
   0.30769231  0.26923077  0.00000000       0.018
   0.34615385  0.26923077  0.00000000       0.018
   0.30769231  0.30769231  0.00000000       0.009
   0.34615385  0.30769231  0.00000000       0.009

 position of ions in fractional coordinates (direct lattice)
   0.66666667  0.33333333  0.45634314
   0.33333333  0.66666667  0.54365686

 position of ions in cartesian coordinates  (Angst):
   1.80344627  1.04122019  7.30149017
   0.00000000  2.08244038  8.69850983

 k-point   1 :   0.0000 0.0000 0.0000  plane waves:    1485
 k-point   2 :   0.0385 0.0000 0.0000  plane waves:    1487
 k-point   3 :   0.0769 0.0000 0.0000  plane waves:    1493
 k-point   4 :   0.1154-0.0000 0.0000  plane waves:    1504
 k-point   5 :   0.1538 0.0000 0.0000  plane waves:    1498
 k-point   6 :   0.1923 0.0000 0.0000  plane waves:    1488
 k-point   7 :   0.2308-0.0000 0.0000  plane waves:    1484
 k-point   8 :   0.2692 0.0000 0.0000  plane waves:    1486
 k-point   9 :   0.3077 0.0000 0.0000  plane waves:    1476
 k-point  10 :   0.3462-0.0000 0.0000  plane waves:    1480
 k-point  11 :   0.3846 0.0000 0.0000  plane waves:    1462
 k-point  12 :   0.4231 0.0000 0.0000  plane waves:    1450
 k-point  13 :   0.4615-0.0000 0.0000  plane waves:    1452
 k-point  14 :   0.5000 0.0000 0.0000  plane waves:    1440
 k-point  15 :   0.0385 0.0385 0.0000  plane waves:    1485
 k-point  16 :   0.0769 0.0385 0.0000  plane waves:    1493
 k-point  17 :   0.1154 0.0385 0.0000  plane waves:    1496
 k-point  18 :   0.1538 0.0385 0.0000  plane waves:    1491
 k-point  19 :   0.1923 0.0385 0.0000  plane waves:    1485
 k-point  20 :   0.2308 0.0385 0.0000  plane waves:    1491
 k-point  21 :   0.2692 0.0385 0.0000  plane waves:    1480
 k-point  22 :   0.3077 0.0385 0.0000  plane waves:    1474
 k-point  23 :   0.3462 0.0385 0.0000  plane waves:    1468
 k-point  24 :   0.3846 0.0385 0.0000  plane waves:    1463
 k-point  25 :   0.4231 0.0385 0.0000  plane waves:    1456
 k-point  26 :   0.4615 0.0385 0.0000  plane waves:    1451
 k-point  27 :   0.0769 0.0769 0.0000  plane waves:    1503
 k-point  28 :   0.1154 0.0769 0.0000  plane waves:    1501
 k-point  29 :   0.1538 0.0769 0.0000  plane waves:    1493
 k-point  30 :   0.1923 0.0769 0.0000  plane waves:    1495
 k-point  31 :   0.2308 0.0769 0.0000  plane waves:    1489
 k-point  32 :   0.2692 0.0769 0.0000  plane waves:    1482
 k-point  33 :   0.3077 0.0769 0.0000  plane waves:    1464
 k-point  34 :   0.3462 0.0769 0.0000  plane waves:    1463
 k-point  35 :   0.3846 0.0769 0.0000  plane waves:    1457
 k-point  36 :   0.4231 0.0769 0.0000  plane waves:    1457
 k-point  37 :   0.4615 0.0769 0.0000  plane waves:    1452
 k-point  38 :   0.1154 0.1154 0.0000  plane waves:    1497
 k-point  39 :   0.1538 0.1154 0.0000  plane waves:    1495
 k-point  40 :   0.1923 0.1154 0.0000  plane waves:    1489
 k-point  41 :   0.2308 0.1154 0.0000  plane waves:    1480
 k-point  42 :   0.2692 0.1154 0.0000  plane waves:    1470
 k-point  43 :   0.3077 0.1154 0.0000  plane waves:    1462
 k-point  44 :   0.3462 0.1154 0.0000  plane waves:    1456
 k-point  45 :   0.3846 0.1154 0.0000  plane waves:    1453
 k-point  46 :   0.4231 0.1154 0.0000  plane waves:    1451
 k-point  47 :   0.1538 0.1538 0.0000  plane waves:    1493
 k-point  48 :   0.1923 0.1538 0.0000  plane waves:    1481
 k-point  49 :   0.2308 0.1538 0.0000  plane waves:    1463
 k-point  50 :   0.2692 0.1538 0.0000  plane waves:    1464
 k-point  51 :   0.3077 0.1538 0.0000  plane waves:    1464
 k-point  52 :   0.3462 0.1538 0.0000  plane waves:    1454
 k-point  53 :   0.3846 0.1538 0.0000  plane waves:    1460
 k-point  54 :   0.4231 0.1538 0.0000  plane waves:    1462
 k-point  55 :   0.1923 0.1923 0.0000  plane waves:    1479
 k-point  56 :   0.2308 0.1923 0.0000  plane waves:    1471
 k-point  57 :   0.2692 0.1923 0.0000  plane waves:    1468
 k-point  58 :   0.3077 0.1923 0.0000  plane waves:    1456
 k-point  59 :   0.3462 0.1923 0.0000  plane waves:    1457
 k-point  60 :   0.3846 0.1923 0.0000  plane waves:    1456
 k-point  61 :   0.2308 0.2308 0.0000  plane waves:    1459
 k-point  62 :   0.2692 0.2308 0.0000  plane waves:    1457
 k-point  63 :   0.3077 0.2308 0.0000  plane waves:    1456
 k-point  64 :   0.3462 0.2308 0.0000  plane waves:    1458
 k-point  65 :   0.3846 0.2308 0.0000  plane waves:    1458
 k-point  66 :   0.2692 0.2692 0.0000  plane waves:    1452
 k-point  67 :   0.3077 0.2692 0.0000  plane waves:    1458
 k-point  68 :   0.3462 0.2692 0.0000  plane waves:    1466
 k-point  69 :   0.3077 0.3077 0.0000  plane waves:    1476
 k-point  70 :   0.3462 0.3077 0.0000  plane waves:    1468

 maximum and minimum number of plane-waves per node :       385      357

 maximum number of plane-waves:      1504
 maximum index in each direction:
   IXMAX=    4   IYMAX=    4   IZMAX=   19
   IXMIN=   -4   IYMIN=   -4   IZMIN=  -19

 parallel 3D FFT for wavefunctions:
    minimum data exchange during FFTs selected (reduces bandwidth)
 parallel 3D FFT for charge:
    minimum data exchange during FFTs selected (reduces bandwidth)

 Broyden mixing: mesh for mixing (old mesh)
   NGX =  9   NGY =  9   NGZ = 39
  (NGX  = 36   NGY  = 36   NGZ  =160)
  gives a total of   3159 points

 initial charge density was supplied:
 charge density of overlapping atoms calculated
 number of electron      10.0000000 magnetization
 keeping initial charge density in first step

 Maximum index for augmentation-charges         3084 (set IRDMAX)

 First call to EWALD:  gamma=   0.314
 Maximum number of real-space cells 5x 5x 1
 Maximum number of reciprocal cells 2x 2x 7

--------------------------------------- Ionic step        1  -------------------------------------------

--------------------------------------- Iteration      1(   1)  ---------------------------------------

 eigenvalue-minimisations  :  2248
 total energy-change (2. order) : 0.2992849E+02  (-0.2071762E+03)
 number of electron      10.0000000 magnetization
 augmentation part       10.0000000 magnetization

 Free energy of the ion-electron system (eV)
  alpha Z        PSCENC =         5.26383816
  Ewald energy   TEWEN  =       378.22030483
  -Hartree energ DENC   =      -664.27977220
  -exchange      EXHF   =         0.00000000
  -V(xc)+E(xc)   XCENC  =       -23.94414315
  PAW double counting   =       294.12882363     -251.25503797
  entropy T*S    EENTRO =        -0.00000234
  eigenvalues    EBANDS =       -48.56945547
  atomic energy  EATOM  =       340.36393574
  Solvation  Ediel_sol  =         0.00000000
  free energy    TOTEN  =        29.92849124 eV

  energy without entropy =       29.92849358  energy(sigma->0) =       29.92849241

[...]

 eigenvalue-minimisations  :  3136
 total energy-change (2. order) :-0.3598964E+02  (-0.3420904E+02)
 number of electron      10.0000000 magnetization
 augmentation part       10.0000000 magnetization

[...]

 Broyden mixing:
  rms(total) = 0.19301E+00    rms(broyden)= 0.19289E+00
  rms(prec ) = 0.21689E+00
  weight for this iteration     100.00

[...]

 eigenvalues of (default mixing * dielectric matrix)
  average eigenvalue GAMMA=   9.0736
  9.0736

[...]

 eigenvalue-minimisations  :  2472
 total energy-change (2. order) :-0.1024624E-05  (-0.1027967E-06)
 number of electron       9.9999999 magnetization
 augmentation part       -1.6263347 magnetization

 Broyden mixing:
  rms(total) = 0.17563E-03    rms(broyden)= 0.17558E-03
  rms(prec ) = 0.20593E-03
  weight for this iteration     100.00

 eigenvalues of (default mixing * dielectric matrix)
  average eigenvalue GAMMA=   4.4913
 10.3204  8.9841  7.3991  4.9635  0.9622  1.0905  1.0905  1.1200

[...]

--------------------------------------- Iteration      1(  21)  ---------------------------------------

 eigenvalue-minimisations  :  2224
 total energy-change (2. order) : 0.8178233E-08  (-0.2111394E-07)
 number of electron       9.9999999 magnetization
 augmentation part       -1.6263347 magnetization

 Free energy of the ion-electron system (eV)
  alpha Z        PSCENC =         5.26383816
  Ewald energy   TEWEN  =       378.22030483
  -Hartree energ DENC   =      -670.07718462
  -exchange      EXHF   =         0.00000000
  -V(xc)+E(xc)   XCENC  =       -23.49331819
  PAW double counting   =       332.31907464     -289.59130000
  entropy T*S    EENTRO =        -0.00000000
  eigenvalues    EBANDS =       -82.34710445
  atomic energy  EATOM  =       340.36393574
  Solvation  Ediel_sol  =         0.00000000
  free energy    TOTEN  =        -9.34175389 eV

  energy without entropy =       -9.34175389  energy(sigma->0) =       -9.34175389

 average (electrostatic) potential at core
  the test charge radii are     1.0621
  (the norm of the test charge is              1.0000)
       1 -57.2649       2 -57.2649

 E-fermi :  -2.9707     XC(G=0):  -3.2504     alpha+bet : -2.4472

 Fermi energy:        -2.9706948948

 k-point     1 :       0.0000    0.0000    0.0000
  band No.  band energies     occupation
      1     -16.4751      2.00000
      2     -10.1873      2.00000
      3      -3.5630      2.00000
      4      -3.0141      2.00000
      5      -3.0141      2.00000
      6      -1.0920      0.00000
      7       0.4769      0.00000
      8       0.4769      0.00000
      9       1.9034      0.00000
     10       1.9965      0.00000
     11       3.3760      0.00000
     12       4.3041      0.00000
     13       5.8641      0.00000
     14       6.8853      0.00000
     15       7.0689      0.00000
     16       7.0689      0.00000

[...]

 k-point    70 :       0.3462    0.3077    0.0000
  band No.  band energies     occupation
      1     -13.1039      2.00000
      2     -12.7893      2.00000
      3      -7.3414      2.00000
      4      -5.1123      2.00000
      5      -4.8766      2.00000
      6      -0.9888      0.00000
      7       1.4519      0.00000
      8       1.5922      0.00000
      9       5.0808      0.00000
     10       5.5917      0.00000
     11       6.0241      0.00000
     12       6.5276      0.00000
     13       6.6396      0.00000
     14       6.9011      0.00000
     15       7.0665      0.00000
     16       7.3279      0.00000

 soft charge-density along one line, spin component           1
         0         1         2         3         4         5         6         7         8         9
 total charge-density along one line

------------------------ aborting loop because EDIFF is reached ----------------------------------------

 total charge

# of ion       s       p       d       tot
    1        1.291   1.352   0.041   2.684
    2        1.291   1.352   0.041   2.684
tot          2.582   2.703   0.082   5.368

  FREE ENERGIE OF THE ION-ELECTRON SYSTEM (eV)
  free  energy   TOTEN  =        -9.34175389 eV

  energy  without entropy=       -9.34175389  energy(sigma->0) =       -9.34175389

 total charge

# of ion       s       p       d       tot
    1        1.291   1.352   0.041   2.684
    2        1.291   1.352   0.041   2.684
tot          2.582   2.703   0.082   5.368