 vasp.6.4.2 20Jul23 (build Nov 14 2023 12:59:38) complex

 executed on             LinuxIFC date 2023.12.18  09:39:00

 INCAR:
   ENCUT = 234.789750
   ALGO = Normal
   NELM = 200
   NELMIN = 6
   NELMDL = -12
   EDIFF = 1.0E-6
   AMIX = 0.1
   BMIX = 0.0001
   PREC = Accurate
   IVDW = 0
   ISPIN = 1
   ADDGRID = .TRUE.
   LASPH = .TRUE.
   LEPSILON = .TRUE.
   NSW = 0
   EDIFFG = -0.010
   IBRION = 2
   ISIF = -1
   POTIM = 0.5
   STRESSTYPE = 2
   ISMEAR = 0
   SIGMA = 0.01
   LORBIT = 10
   NEDOS = 6001
   NWRITE = 1
   LWAVE = .FALSE.
   LCHARG = .FALSE.
   LPLANE = .TRUE.

 POTCAR:    PAW_PBE As_GW 20Mar2012
|           W    W    AA    RRRRR   N    N  II  N    N   GGGG   !!!           |
|           W    W   A  A   R    R  NN   N  II  NN   N  G    G  !!!           |
|           W    W  A    A  R    R  N N  N  II  N N  N  G       !!!           |
|           W WW W  AAAAAA  RRRRR   N  N N  II  N  N N  G  GGG   !            |
|           WW  WW  A    A  R   R   N   NN  II  N   NN  G    G                |
|           W    W  A    A  R    R  N    N  II  N    N   GGGG   !!!           |
|     For optimal performance we recommend to set                             |
|       NCORE = 2 up to number-of-cores-per-socket                            |
|     This setting can greatly improve the performance of VASP for DFT.       |
|     The default, NCORE=1 might be grossly inefficient on modern             |
|     multi-core architectures or massively parallel machines. Do your        |
|     Unfortunately you need to use the default for GW and RPA                |
|     calculations (for HF NCORE is supported but not extensively tested      |
|     yet).                                                                   |

 POTCAR:    PAW_PBE As_GW 20Mar2012

  PAW_PBE As_GW 20Mar2012               :

 POSCAR: pnictogen honeycomb monolayer
  positions in cartesian coordinates
 exchange correlation table for  LEXCH =        8
   RHO(1)=    0.500       N(1)  =     2000
   RHO(2)=  100.500       N(2)  =     4000

 ion  position               nearest neighbor table
   1  0.667  0.333  0.304-   2 2.51   2 2.51   2 2.51
   2  0.333  0.667  0.362-   1 2.51   1 2.51   1 2.51

  LATTYP: Found a hexagonal cell.
 ALAT       =     3.6068925858
 C/A-ratio  =     6.6539270103

  Lattice vectors:

 A1 = (   3.6068925858,   0.0000000000,   0.0000000000)
 A2 = (  -1.8034462929,   3.1236606080,   0.0000000000)
 A3 = (   0.0000000000,   0.0000000000,  24.0000000000)

Analysis of symmetry for initial positions (statically):
 Subroutine PRICEL returns:
 Original cell was already a primitive cell.

 Routine SETGRP: Setting up the symmetry group for a
 hexagonal supercell.

 Subroutine GETGRP returns: Found 12 space group operations
 (whereof  6 operations were pure point group operations)
 out of a pool of 24 trial point group operations.

The static configuration has the point symmetry C_3v.
 The point group associated with its full space group is D_3d.

Analysis of symmetry for dynamics (positions and initial velocities):
 Subroutine PRICEL returns:
 Original cell was already a primitive cell.

[...]

The dynamic configuration has the point symmetry C_3v.
 The point group associated with its full space group is D_3d.

 Subroutine INISYM returns: Found 12 space group operations
 (whereof  6 operations are pure point group operations),
 and found     1 'primitive' translations

                                     Primitive cell

  volume of cell :     270.4010

  direct lattice vectors                    reciprocal lattice vectors
     3.606892586  0.000000000  0.000000000     0.277246959  0.160068606  0.000000000
    -1.803446293  3.123660608  0.000000000     0.000000000  0.320137213  0.000000000
     0.000000000  0.000000000 24.000000000     0.000000000  0.000000000  0.041666667

  length of vectors
     3.606892586  3.606892586 24.000000000     0.320137213  0.320137213  0.041666667

  position of ions in fractional coordinates (direct lattice)
     0.666666687  0.333333343  0.304228763
     0.333333343  0.666666686  0.362437924

  ion indices of the primitive-cell ions
   primitive index   ion index
                 1           1
                 2           2

 KPOINTS: kpoints

Automatic generation of k-mesh.
 Grid dimensions read from file:
 generate k-points for:   13   13    1

 Generating k-lattice:

  Cartesian coordinates                     Fractional coordinates (reciprocal lattice)
     0.021326689  0.012312970  0.000000000     0.076923077  0.000000000  0.000000000
     0.000000000  0.024625939  0.000000000     0.000000000  0.076923077  0.000000000
     0.000000000  0.000000000  0.041666667     0.000000000  0.000000000  1.000000000

  Length of vectors
     0.024625939  0.024625939  0.041666667

  Shift w.r.t. Gamma in fractional coordinates (k-lattice)
     0.000000000  0.000000000  0.000000000

 Subroutine IBZKPT returns following result:

 Found     21 irreducible k-points:

 Following reciprocal coordinates:
            Coordinates               Weight
  0.000000  0.000000  0.000000      1.000000
  0.076923  0.000000  0.000000      6.000000
  0.153846  0.000000  0.000000      6.000000
  0.230769 -0.000000  0.000000      6.000000
  0.307692  0.000000  0.000000      6.000000
  0.384615 -0.000000  0.000000      6.000000
  0.461538 -0.000000  0.000000      6.000000
  0.076923  0.076923  0.000000      6.000000
  0.153846  0.076923  0.000000     12.000000
  0.230769  0.076923  0.000000     12.000000
  0.307692  0.076923  0.000000     12.000000
  0.384615  0.076923  0.000000     12.000000
  0.461538  0.076923  0.000000      6.000000
  0.153846  0.153846  0.000000      6.000000
  0.230769  0.153846  0.000000     12.000000
  0.307692  0.153846  0.000000     12.000000
  0.384615  0.153846  0.000000     12.000000
  0.230769  0.230769  0.000000      6.000000
  0.307692  0.230769  0.000000     12.000000
  0.384615  0.230769  0.000000      6.000000
  0.307692  0.307692  0.000000      6.000000

 Following cartesian coordinates:
            Coordinates               Weight
  0.000000  0.000000  0.000000      1.000000
  0.021327  0.012313  0.000000      6.000000
  0.042653  0.024626  0.000000      6.000000
  0.063980  0.036939  0.000000      6.000000
  0.085307  0.049252  0.000000      6.000000
  0.106633  0.061565  0.000000      6.000000
  0.127960  0.073878  0.000000      6.000000
  0.021327  0.036939  0.000000      6.000000
  0.042653  0.049252  0.000000     12.000000
  0.063980  0.061565  0.000000     12.000000
  0.085307  0.073878  0.000000     12.000000
  0.106633  0.086191  0.000000     12.000000
  0.127960  0.098504  0.000000      6.000000
  0.042653  0.073878  0.000000      6.000000
  0.063980  0.086191  0.000000     12.000000
  0.085307  0.098504  0.000000     12.000000
  0.106633  0.110817  0.000000     12.000000
  0.063980  0.110817  0.000000      6.000000
  0.085307  0.123130  0.000000     12.000000
  0.106633  0.135443  0.000000      6.000000
  0.085307  0.147756  0.000000      6.000000

 Subroutine IBZKPT_HF returns following result:

 Found    169 k-points in 1st BZ
 the following    169 k-points will be used (e.g. in the exchange kernel)
 Following reciprocal coordinates:   # in IRBZ
  0.000000  0.000000  0.000000    0.00591716   1 t-inv F
  0.076923  0.000000  0.000000    0.00591716   2 t-inv F
  0.153846  0.000000  0.000000    0.00591716   3 t-inv F
  0.230769 -0.000000  0.000000    0.00591716   4 t-inv F
  0.307692  0.000000  0.000000    0.00591716   5 t-inv F
  0.384615 -0.000000  0.000000    0.00591716   6 t-inv F
  0.461538 -0.000000  0.000000    0.00591716   7 t-inv F
  0.076923  0.076923  0.000000    0.00591716   8 t-inv F
  0.153846  0.076923  0.000000    0.00591716   9 t-inv F
  0.230769  0.076923  0.000000    0.00591716  10 t-inv F
  0.307692  0.076923  0.000000    0.00591716  11 t-inv F
  0.384615  0.076923  0.000000    0.00591716  12 t-inv F
  0.461538  0.076923  0.000000    0.00591716  13 t-inv F
  0.153846  0.153846  0.000000    0.00591716  14 t-inv F
  0.230769  0.153846  0.000000    0.00591716  15 t-inv F
  0.307692  0.153846  0.000000    0.00591716  16 t-inv F
  0.384615  0.153846  0.000000    0.00591716  17 t-inv F
  0.230769  0.230769  0.000000    0.00591716  18 t-inv F
  0.307692  0.230769  0.000000    0.00591716  19 t-inv F
  0.384615  0.230769  0.000000    0.00591716  20 t-inv F
  0.307692  0.307692  0.000000    0.00591716  21 t-inv F
 -0.076923  0.076923  0.000000    0.00591716   2 t-inv F
  0.000000 -0.076923  0.000000    0.00591716   2 t-inv F
 -0.076923  0.000000  0.000000    0.00591716   2 t-inv F
  0.076923 -0.076923  0.000000    0.00591716   2 t-inv F
  0.000000  0.076923  0.000000    0.00591716   2 t-inv F
 -0.153846  0.153846  0.000000    0.00591716   3 t-inv F
  0.000000 -0.153846  0.000000    0.00591716   3 t-inv F
 -0.153846  0.000000  0.000000    0.00591716   3 t-inv F
  0.153846 -0.153846  0.000000    0.00591716   3 t-inv F
  0.000000  0.153846  0.000000    0.00591716   3 t-inv F
 -0.230769  0.230769  0.000000    0.00591716   4 t-inv F
 -0.000000 -0.230769  0.000000    0.00591716   4 t-inv F
 -0.230769  0.000000  0.000000    0.00591716   4 t-inv F
  0.230769 -0.230769  0.000000    0.00591716   4 t-inv F
  0.000000  0.230769  0.000000    0.00591716   4 t-inv F
 -0.307692  0.307692  0.000000    0.00591716   5 t-inv F
  0.000000 -0.307692  0.000000    0.00591716   5 t-inv F
 -0.307692  0.000000  0.000000    0.00591716   5 t-inv F
  0.307692 -0.307692  0.000000    0.00591716   5 t-inv F
  0.000000  0.307692  0.000000    0.00591716   5 t-inv F
 -0.384615  0.384615  0.000000    0.00591716   6 t-inv F
 -0.000000 -0.384615  0.000000    0.00591716   6 t-inv F
 -0.384615  0.000000  0.000000    0.00591716   6 t-inv F
  0.384615 -0.384615  0.000000    0.00591716   6 t-inv F
  0.000000  0.384615  0.000000    0.00591716   6 t-inv F
 -0.461538  0.461538  0.000000    0.00591716   7 t-inv F
 -0.000000 -0.461538  0.000000    0.00591716   7 t-inv F
 -0.461538  0.000000  0.000000    0.00591716   7 t-inv F
  0.461538 -0.461538  0.000000    0.00591716   7 t-inv F
  0.000000  0.461538  0.000000    0.00591716   7 t-inv F
 -0.153846  0.076923  0.000000    0.00591716   8 t-inv F
  0.076923 -0.153846  0.000000    0.00591716   8 t-inv F
 -0.076923  0.153846  0.000000    0.00591716   8 t-inv F
  0.153846 -0.076923  0.000000    0.00591716   8 t-inv F
 -0.076923 -0.076923  0.000000    0.00591716   8 t-inv F
 -0.230769  0.153846  0.000000    0.00591716   9 t-inv F
  0.076923 -0.230769  0.000000    0.00591716   9 t-inv F
 -0.153846  0.230769  0.000000    0.00591716   9 t-inv F
  0.230769 -0.076923  0.000000    0.00591716   9 t-inv F
[...]
  0.538462 -0.307692  0.000000    0.00591716  19 t-inv F
 -0.230769  0.538462  0.000000    0.00591716  19 t-inv F
  0.307692 -0.538462  0.000000    0.00591716  19 t-inv F
 -0.538462  0.230769  0.000000    0.00591716  19 t-inv F
  0.230769  0.307692  0.000000    0.00591716  19 t-inv F
 -0.615385  0.384615  0.000000    0.00591716  20 t-inv F
  0.230769 -0.615385  0.000000    0.00591716  20 t-inv F
 -0.384615  0.615385  0.000000    0.00591716  20 t-inv F
  0.615385 -0.230769  0.000000    0.00591716  20 t-inv F
[...]
   0.10663345  0.11081673  0.00000000       0.071
   0.06398007  0.11081673  0.00000000       0.036
   0.08530676  0.12312970  0.00000000       0.071
   0.10663345  0.13544267  0.00000000       0.036
   0.08530676  0.14775564  0.00000000       0.036

 k-points in reciprocal lattice and weights: kpoints
   0.00000000  0.00000000  0.00000000       0.006
   0.07692308  0.00000000  0.00000000       0.036
   0.15384615  0.00000000  0.00000000       0.036
   0.23076923 -0.00000000  0.00000000       0.036
   0.30769231  0.00000000  0.00000000       0.036
   0.38461538 -0.00000000  0.00000000       0.036
   0.46153846 -0.00000000  0.00000000       0.036
   0.07692308  0.07692308  0.00000000       0.036
   0.15384615  0.07692308  0.00000000       0.071
   0.23076923  0.07692308  0.00000000       0.071
   0.30769231  0.07692308  0.00000000       0.071
   0.38461538  0.07692308  0.00000000       0.071
   0.46153846  0.07692308  0.00000000       0.036
   0.15384615  0.15384615  0.00000000       0.036
   0.23076923  0.15384615  0.00000000       0.071
   0.30769231  0.15384615  0.00000000       0.071
   0.38461538  0.15384615  0.00000000       0.071
   0.23076923  0.23076923  0.00000000       0.036
   0.30769231  0.23076923  0.00000000       0.071
   0.38461538  0.23076923  0.00000000       0.036
   0.30769231  0.30769231  0.00000000       0.036

 position of ions in fractional coordinates (direct lattice)
   0.66666669  0.33333334  0.30422876
   0.33333334  0.66666669  0.36243792

 position of ions in cartesian coordinates  (Angst):
   1.80344635  1.04122023  7.30149031
   0.00000000  2.08244047  8.69851017

 k-point   1 :   0.0000 0.0000 0.0000  plane waves:    2237
 k-point   2 :   0.0769 0.0000 0.0000  plane waves:    2227
 k-point   3 :   0.1538 0.0000 0.0000  plane waves:    2242
 k-point   4 :   0.2308-0.0000 0.0000  plane waves:    2242
 k-point   5 :   0.3077 0.0000 0.0000  plane waves:    2208
 k-point   6 :   0.3846-0.0000 0.0000  plane waves:    2206
 k-point   7 :   0.4615-0.0000 0.0000  plane waves:    2194
 k-point   8 :   0.0769 0.0769 0.0000  plane waves:    2245
 k-point   9 :   0.1538 0.0769 0.0000  plane waves:    2241
 k-point  10 :   0.2308 0.0769 0.0000  plane waves:    2235
 k-point  11 :   0.3077 0.0769 0.0000  plane waves:    2200
 k-point  12 :   0.3846 0.0769 0.0000  plane waves:    2197
 k-point  13 :   0.4615 0.0769 0.0000  plane waves:    2188
 k-point  14 :   0.1538 0.1538 0.0000  plane waves:    2233
 k-point  15 :   0.2308 0.1538 0.0000  plane waves:    2209
 k-point  16 :   0.3077 0.1538 0.0000  plane waves:    2200
 k-point  17 :   0.3846 0.1538 0.0000  plane waves:    2184
 k-point  18 :   0.2308 0.2308 0.0000  plane waves:    2177
 k-point  19 :   0.3077 0.2308 0.0000  plane waves:    2182
 k-point  20 :   0.3846 0.2308 0.0000  plane waves:    2190
 k-point  21 :   0.3077 0.3077 0.0000  plane waves:    2194

 maximum and minimum number of plane-waves per node :      2245     2177

 maximum number of plane-waves:      2245
 maximum index in each direction:
   IXMAX=    4   IYMAX=    4   IZMAX=   29
   IXMIN=   -4   IYMIN=   -4   IZMIN=  -29

 serial   3D FFT for wavefunctions
 parallel 3D FFT for charge:
    minimum data exchange during FFTs selected (reduces bandwidth)

 Broyden mixing: mesh for mixing (old mesh)
   NGX =  9   NGY =  9   NGZ = 59
  (NGX  = 36   NGY  = 36   NGZ  =240)
  gives a total of   4779 points

 initial charge density was supplied:
 charge density of overlapping atoms calculated
 number of electron      10.0000000 magnetization
 keeping initial charge density in first step

 Maximum index for augmentation-charges         3084 (set IRDMAX)

 First call to EWALD:  gamma=   0.274
 Maximum number of real-space cells 5x 5x 1
 Maximum number of reciprocal cells 2x 2x 9

--------------------------------------- Ionic step        1  -------------------------------------------

--------------------------------------- Iteration      1(   1)  ---------------------------------------

 eigenvalue-minimisations  :   672
 total energy-change (2. order) : 0.2948597E+02  (-0.2369634E+03)
 number of electron      10.0000000 magnetization
 augmentation part       10.0000000 magnetization

 Free energy of the ion-electron system (eV)
  alpha Z        PSCENC =         3.50922535
  Ewald energy   TEWEN  =       905.41950464
  -Hartree energ DENC   =     -1181.46406637
  -exchange      EXHF   =         0.00000000
  -V(xc)+E(xc)   XCENC  =       -23.94413354
  PAW double counting   =       294.12882363     -251.25503797
  entropy T*S    EENTRO =        -0.00012553
  eigenvalues    EBANDS =       -57.27215896
  atomic energy  EATOM  =       340.36393574
  Solvation  Ediel_sol  =         0.00000000
  free energy    TOTEN  =        29.48596699 eV

  energy without entropy =       29.48609252  energy(sigma->0) =       29.48602976

[...]

 eigenvalue-minimisations  :   992
 total energy-change (2. order) :-0.3766159E+02  (-0.3711580E+02)
 number of electron      10.0000000 magnetization
 augmentation part       10.0000000 magnetization

[...]

 Broyden mixing:
  rms(total) = 0.19305E+00    rms(broyden)= 0.19293E+00
  rms(prec ) = 0.20395E+00
  weight for this iteration     100.00

[...]

 eigenvalues of (default mixing * dielectric matrix)
  average eigenvalue GAMMA=   9.0729
  9.0729

[...]

 eigenvalue-minimisations  :  1072
 total energy-change (2. order) :-0.1128637E-04  (-0.7870093E-05)
 number of electron       9.9999999 magnetization
 augmentation part       -1.6263733 magnetization

[...]

--------------------------------------- Iteration      1(  19)  ---------------------------------------

 eigenvalue-minimisations  :   832
 total energy-change (2. order) : 0.5871041E-06  (-0.2986629E-06)
 number of electron       9.9999999 magnetization
 augmentation part       -1.6263733 magnetization

 Free energy of the ion-electron system (eV)
  alpha Z        PSCENC =         3.50922535
  Ewald energy   TEWEN  =       905.41950464
  -Hartree energ DENC   =     -1187.69619461
  -exchange      EXHF   =         0.00000000
  -V(xc)+E(xc)   XCENC  =       -23.49292169
  PAW double counting   =       332.31804440     -289.59039200
  entropy T*S    EENTRO =        -0.00000000
  eigenvalues    EBANDS =       -90.17295549
  atomic energy  EATOM  =       340.36393574
  Solvation  Ediel_sol  =         0.00000000
  free energy    TOTEN  =        -9.34175366 eV

  energy without entropy =       -9.34175366  energy(sigma->0) =       -9.34175366

 average (electrostatic) potential at core
  the test charge radii are     1.0621
  (the norm of the test charge is              1.0000)
       1 -58.0484       2 -58.0484

 E-fermi :  -3.7544     XC(G=0):  -2.1849     alpha+bet : -1.6315

 Fermi energy:        -3.7543512656

 k-point     1 :       0.0000    0.0000    0.0000
  band No.  band energies     occupation
      1     -17.2577      2.00000
      2     -10.9699      2.00000
      3      -4.3454      2.00000
      4      -3.7968      2.00000
      5      -3.7968      2.00000
      6      -1.8748      0.00000
      7      -0.3059      0.00000
      8      -0.3059      0.00000
      9       1.0511      0.00000
     10       1.2843      0.00000
     11       1.8016      0.00000
     12       2.1974      0.00000
     13       3.0685      0.00000
     14       3.6512      0.00000
     15       4.7659      0.00000
     16       5.6109      0.00000

[...]

 k-point    21 :       0.3077    0.3077    0.0000
  band No.  band energies     occupation
      1     -14.0823      2.00000
      2     -13.3807      2.00000
      3      -8.0749      2.00000
      4      -6.0520      2.00000
      5      -5.5089      2.00000
      6      -1.7198      0.00000
      7       0.4998      0.00000
      8       0.9139      0.00000
      9       4.3513      0.00000
     10       4.7561      0.00000
     11       4.8480      0.00000
     12       5.3402      0.00000
     13       5.8935      0.00000
     14       6.1875      0.00000
     15       6.3049      0.00000
     16       6.4068      0.00000

 soft charge-density along one line, spin component           1
         0         1         2         3         4         5         6         7         8         9
 total charge-density along one line

------------------------ aborting loop because EDIFF is reached ----------------------------------------

 total charge

# of ion       s       p       d       tot
    1        1.291   1.352   0.041   2.684
    2        1.291   1.352   0.041   2.684
tot          2.582   2.703   0.082   5.368

  FREE ENERGIE OF THE ION-ELECTRON SYSTEM (eV)
  free  energy   TOTEN  =        -9.34175366 eV

  energy  without entropy=       -9.34175366  energy(sigma->0) =       -9.34175366

 Linear response reoptimize wavefunctions
 Linear response G [H, r] |phi>, progress :
  Direction:   1

----------------------------------------- Iteration    1(   1)  ---------------------------------------

  free energy    TOTEN  =       -40.00128007 eV

[...]

 Linear response G [H, r] |phi>, progress :
  Direction:   2

[...]

 Linear response G [H, r] |phi>, progress :
  Direction:   3

[...]

  free energy    TOTEN  =       -40.63934783 eV

[...]

 Linear response to external field (no local field effect), progress :
  Direction:   1
  LATTYP: Found a hexagonal cell.
 ALAT       =     3.6068925858
 C/A-ratio  =     6.6539270103

[...]

The dynamic configuration has the point symmetry C_1 .
 The point group associated with its full space group is C_2 .

[...]

 Free energy of the ion-electron system (eV)
  -Hartree energ DENC   =         0.00000000
  -V(xc)+E(xc)   XCENC  =         0.00000000
  PAW double counting   =         0.00000000        0.00000000
  entropy T*S    EENTRO =         0.00000000
  eigenvalues    EBANDS =        -1.79455175
  free energy    TOTEN  =        -1.79455175 eV

  energy without entropy =       -1.79455175

[...]

 change of polarisation eV/A/(eV/A) component  1 :     3.673    -1.462    -0.102
 dielectric tensor                  component  1 :     3.458    -0.978    -0.068

[...]

The dynamic configuration has the point symmetry C_1h.

[...]

 Linear response to external field (no local field effect), progress :
  Direction:   3
  LATTYP: Found a hexagonal cell.
 ALAT       =     3.6068925858
 C/A-ratio  =     6.6539270103

[...]

The dynamic configuration has the point symmetry C_3v.

[...]

 HEAD OF MICROSCOPIC STATIC DIELECTRIC TENSOR (INDEPENDENT PARTICLE, excluding Hartree and local field effects)
           3.709383    -0.000000     0.000000
           0.000000     3.709383    -0.000000
           0.000000    -0.000000     2.082682

 Linear response to external field, progress :
  Direction:   1
  LATTYP: Found a hexagonal cell.
 ALAT       =     3.6068925858
 C/A-ratio  =     6.6539270103

[...]

The dynamic configuration has the point symmetry C_1 .
 The point group associated with its full space group is C_2 .

[...]

 PIEZOELECTRIC TENSOR FIELD DIRECTION 1  (e Angst)
    -0.00003  0.00000  0.00000           ( -0.00003  0.00000  0.00000)
     0.00000 -0.00002 -0.00001           (  0.00000 -0.00002 -0.00001)
     0.00000 -0.00001  0.00001           (  0.00000 -0.00001  0.00001)

 PIEZOELECTRIC TENSOR FIELD DIRECTION 1  (C/m^2)
    -0.00000  0.00000  0.00000
     0.00000 -0.00000 -0.00000
     0.00000 -0.00000  0.00000

      POSITION         DIRECTION 1           BORN EFFECTIVE CHARGE    (rigid.aug.   ionic)
      1.80345      1.04122      7.30149     4.95237  0.00002  0.00007 (  0.81319  5.00000)
      0.00000      2.08244      8.69851     4.95237 -0.00002 -0.00007 (  0.81319  5.00000)
    total drift (improves with k-points):   9.90474  0.00000  0.00000

[...]

The dynamic configuration has the point symmetry C_1h.

[...]

 Linear response to external field, progress :
  Direction:   3
  LATTYP: Found a hexagonal cell.
 ALAT       =     3.6068925858
 C/A-ratio  =     6.6539270103

[...]

The dynamic configuration has the point symmetry C_3v.

[...]

----------------------------------------- Iteration    3(  13)  ---------------------------------------

 Broyden mixing:
  rms(total) = 0.69434E-05    rms(broyden)= 0.69428E-05
  rms(prec ) = 0.74039E-05
  weight for this iteration     100.00

 eigenvalues of (default mixing * dielectric matrix)
  average eigenvalue GAMMA=   4.2329
 10.0595 10.0595  7.3602  7.3602  5.3082  1.3943  1.0250  1.0250  1.0024  1.0024
  0.9655

 Free energy of the ion-electron system (eV)
  -Hartree energ DENC   =        -0.11489595
  -V(xc)+E(xc)   XCENC  =         0.00544714
  PAW double counting   =         0.01110631       -0.01104176
  entropy T*S    EENTRO =         0.00000000
  eigenvalues    EBANDS =        -0.04718014
  free energy    TOTEN  =        -0.15656439 eV

  energy without entropy =       -0.15656439

------------------------ aborting loop because EDIFF is reached ----------------------------------------

 change of polarisation eV/A/(eV/A) component  3 :    -0.028     0.000     0.299
 dielectric tensor                  component  3 :    -0.019     0.000     1.200

 PIEZOELECTRIC TENSOR FIELD DIRECTION 3  (e Angst)
     0.00000  0.00000  0.00000           (  0.00000  0.00000  0.00000)
     0.00000  0.00000  0.00000           (  0.00000  0.00000  0.00000)
     0.00000  0.00000  0.00000           (  0.00000  0.00000  0.00000)

 PIEZOELECTRIC TENSOR FIELD DIRECTION 3  (C/m^2)
     0.00000  0.00000  0.00000
     0.00000  0.00000  0.00000
     0.00000  0.00000  0.00000

      POSITION         DIRECTION 3           BORN EFFECTIVE CHARGE    (rigid.aug.   ionic)
      1.80345      1.04122      7.30149    -0.00000  0.00000  4.95194 (  0.81319  5.00000)
      0.00000      2.08244      8.69851    -0.00000  0.00000  4.95196 (  0.81319  5.00000)
    total drift (improves with k-points):  -0.00000  0.00000  9.90389

[...]

 MACROSCOPIC STATIC DIELECTRIC TENSOR (including local field effects in DFT)
           3.519904     0.000000     0.000000
          -0.000000     3.519904    -0.000000
           0.000000    -0.000000     1.200420

  LATTYP: Found a hexagonal cell.
 ALAT       =     3.6068925858
 C/A-ratio  =     6.6539270103

  Lattice vectors:

 A1 = (   3.6068925858,   0.0000000000,   0.0000000000)
 A2 = (  -1.8034462929,   3.1236606080,   0.0000000000)
 A3 = (   0.0000000000,   0.0000000000,  24.0000000000)

Analysis of symmetry for initial positions (statically):
 Subroutine PRICEL returns:
 Original cell was already a primitive cell.

[...]

The static configuration has the point symmetry C_3v.
 The point group associated with its full space group is D_3d.

Analysis of symmetry for dynamics (positions and initial velocities):
 Subroutine PRICEL returns:
 Original cell was already a primitive cell.

 Routine SETGRP: Setting up the symmetry group for a
 hexagonal supercell.

 Subroutine GETGRP returns: Found 12 space group operations
 (whereof  6 operations were pure point group operations)
 out of a pool of 24 trial point group operations.

The dynamic configuration has the point symmetry C_3v.
 The point group associated with its full space group is D_3d.

 Subroutine INISYM returns: Found 12 space group operations
 (whereof  6 operations are pure point group operations),
 and found     1 'primitive' translations

 MACROSCOPIC STATIC DIELECTRIC TENSOR (including local field effects in DFT)
           3.519904     0.000000     0.000000
          -0.000000     3.519904    -0.000000
           0.000000    -0.000000     1.200420

 PIEZOELECTRIC TENSOR (including local field effects)  for field in x, y, z        (e  Angst)
          XX          YY          ZZ          XY          YZ          ZX
  x     0.00000     0.00000     0.00000     0.00000     0.00000     0.00000
  y     0.00000    -0.00000     0.00000     0.00000    -0.00000     0.00000
  z    -0.00000     0.00000    -0.00000     0.00000     0.00000     0.00000

 PIEZOELECTRIC TENSOR (including local field effects)  for field in x, y, z        (C/m^2)
          XX          YY          ZZ          XY          YZ          ZX
  x     0.00000     0.00000     0.00000     0.00000     0.00000     0.00000
  y     0.00000    -0.00000     0.00000     0.00000    -0.00000     0.00000
  z    -0.00000     0.00000    -0.00000     0.00000     0.00000     0.00000

 BORN EFFECTIVE CHARGES (including local field effects) (in |e|, cummulative output)
 ion    1
    1    -0.00000     0.00000     0.00000
    2     0.00000    -0.00000     0.00000
    3     0.00000     0.00000    -0.00000
 ion    2
    1    -0.00000     0.00000    -0.00000
    2    -0.00000    -0.00000     0.00000
    3     0.00000     0.00000    -0.00000

 total charge

# of ion       s       p       d       tot
    1        1.291   1.352   0.041   2.684
    2        1.291   1.352   0.041   2.684
tot          2.582   2.703   0.082   5.368